  Job Started  at 18:12.02 27th May        2016

  Number of CPUs =     1

  Total number of configurations input =   1

*  Input for Configuration =   1                                               *

  Formula = Ti180O446H84C160Zn24

  Number of irreducible atoms/shells =     894

  Total number atoms/shells =     894

  Dimensionality = 3               :  Bulk

  Cartesian lattice vectors (Angstroms) :

       17.724000    0.000000    0.000000
        0.000000   19.461000    0.000000
        0.000000    0.000000  114.868000

  Cell parameters (Angstroms/Degrees):

  a =      17.7240    alpha =  90.0000
  b =      19.4610    beta  =  90.0000
  c =     114.8680    gamma =  90.0000

  Initial cell volume =       39621.047527 Angs**3

  Temperature of configuration =  0.000     K

  Pressure of configuration =         0.000 GPa

  Fractional coordinates of asymmetric unit :

   No.  Atomic       x           y          z         Charge      Occupancy
        Label      (Frac)      (Frac)     (Frac)        (e)         (Frac)
      1 Ti    c    0.320000    0.733333    0.339270     2.43600    1.000000
      2 Ti    c    0.148778 *  0.399221 *  0.341318 *   2.43600    1.000000
      3 Ti    c    0.981989 *  0.399764 *  0.341318 *   2.43600    1.000000
      4 Ti    c    0.815061 *  0.399883 *  0.341390 *   2.43600    1.000000
      5 Ti    c    0.650271 *  0.399385 *  0.339783 *   2.43600    1.000000
      6 Ti    c    0.481166 *  0.400049 *  0.340046 *   2.43600    1.000000
      7 Ti    c    0.316097 *  0.399422 *  0.341364 *   2.43600    1.000000
      8 Ti    c    0.148629 *  0.065834 *  0.340817 *   2.43600    1.000000
      9 Ti    c    0.982181 *  0.065884 *  0.341272 *   2.43600    1.000000
     10 Ti    c    0.815556 *  0.066208 *  0.341290 *   2.43600    1.000000
     11 Ti    c    0.648910 *  0.065734 *  0.341215 *   2.43600    1.000000
     12 Ti    c    0.481852 *  0.065905 *  0.341232 *   2.43600    1.000000
     13 Ti    c    0.315433 *  0.065827 *  0.341249 *   2.43600    1.000000
     14 Ti    c    0.143895 *  0.733345 *  0.338644 *   2.43600    1.000000
     15 Ti    c    0.981358 *  0.733160 *  0.341402 *   2.43600    1.000000
     16 Ti    c    0.815517 *  0.732688 *  0.341383 *   2.43600    1.000000
     17 Ti    c    0.649132 *  0.732007 *  0.341380 *   2.43600    1.000000
     18 Ti    c    0.483028 *  0.731826 *  0.341465 *   2.43600    1.000000
     19 Ti    c    0.065421 *  0.232260 *  0.339123 *   2.43600    1.000000
     20 Ti    c    0.898496 *  0.232895 *  0.339149 *   2.43600    1.000000
     21 Ti    c    0.731740 *  0.233370 *  0.339073 *   2.43600    1.000000
     22 Ti    c    0.899623 *  0.899334 *  0.339139 *   2.43600    1.000000
     23 Ti    c    0.565074 *  0.898313 *  0.339147 *   2.43600    1.000000
     24 Ti    c    0.397829 *  0.899334 *  0.339163 *   2.43600    1.000000
     25 Ti    c    0.898557 *  0.566382 *  0.339027 *   2.43600    1.000000
     26 Ti    c    0.565471 *  0.564911 *  0.340450 *   2.43600    1.000000
     27 Ti    c    0.398965 *  0.567024 *  0.338874 *   2.43600    1.000000
     28 Ti    c    0.232489 *  0.231906 *  0.339091 *   2.43600    1.000000
     29 Ti    c    0.565526 *  0.230704 *  0.339374 *   2.43600    1.000000
     30 Ti    c    0.399293 *  0.233499 *  0.339115 *   2.43600    1.000000
     31 Ti    c    0.231008 *  0.900872 *  0.340604 *   2.43600    1.000000
     32 Ti    c    0.066097 *  0.899792 *  0.340678 *   2.43600    1.000000
     33 Ti    c    0.732388 *  0.899192 *  0.339185 *   2.43600    1.000000
     34 Ti    c    0.232398 *  0.563901 *  0.338658 *   2.43600    1.000000
     35 Ti    c    0.065450 *  0.567282 *  0.339043 *   2.43600    1.000000
     36 Ti    c    0.731965 *  0.566516 *  0.338835 *   2.43600    1.000000
     37 Ti    c    0.315479 *  0.566110 *  0.311582 *   2.43600    1.000000
     38 Ti    c    0.148826 *  0.232774 *  0.311972 *   2.43600    1.000000
     39 Ti    c    0.982073 *  0.232835 *  0.311972 *   2.43600    1.000000
     40 Ti    c    0.815535 *  0.232696 *  0.311896 *   2.43600    1.000000
     41 Ti    c    0.648752 *  0.232492 *  0.312019 *   2.43600    1.000000
     42 Ti    c    0.482236 *  0.232494 *  0.312026 *   2.43600    1.000000
     43 Ti    c    0.315480 *  0.232715 *  0.311884 *   2.43600    1.000000
     44 Ti    c    0.148719 *  0.899652 *  0.313396 *   2.43600    1.000000
     45 Ti    c    0.982303 *  0.899525 *  0.312453 *   2.43600    1.000000
     46 Ti    c    0.815387 *  0.899337 *  0.311983 *   2.43600    1.000000
     47 Ti    c    0.648825 *  0.899122 *  0.312014 *   2.43600    1.000000
     48 Ti    c    0.482272 *  0.899194 *  0.311931 *   2.43600    1.000000
     49 Ti    c    0.315264 *  0.899498 *  0.312457 *   2.43600    1.000000
     50 Ti    c    0.148602 *  0.566058 *  0.311741 *   2.43600    1.000000
     51 Ti    c    0.982032 *  0.566022 *  0.311833 *   2.43600    1.000000
     52 Ti    c    0.815656 *  0.566200 *  0.311745 *   2.43600    1.000000
     53 Ti    c    0.648491 *  0.565740 *  0.312421 *   2.43600    1.000000
     54 Ti    c    0.482598 *  0.565705 *  0.312387 *   2.43600    1.000000
     55 Ti    c    0.400477 *  0.732358 *  0.312184 *   2.43600    1.000000
     56 Ti    c    0.231972 *  0.399381 *  0.312708 *   2.43600    1.000000
     57 Ti    c    0.065501 *  0.399227 *  0.312733 *   2.43600    1.000000
     58 Ti    c    0.899035 *  0.399443 *  0.312734 *   2.43600    1.000000
     59 Ti    c    0.733031 *  0.399022 *  0.312380 *   2.43600    1.000000
     60 Ti    c    0.565395 *  0.399031 *  0.312396 *   2.43600    1.000000
     61 Ti    c    0.398083 *  0.398831 *  0.312433 *   2.43600    1.000000
[...]
    880 O176  c    0.566456 *  0.416035 *  0.350861 *  -1.08000    1.000000
    881 O177  c    0.618814 *  0.487076 *  0.413515 *  -1.08000    1.000000
    882 O177  c    0.621505 *  0.374156 *  0.412529 *  -1.08000    1.000000
    883 C912  c    0.585714 *  0.510421 *  0.378293 *  -0.07025    1.000000
    884 C912  c    0.587875 *  0.388313 *  0.375916 *  -0.07025    1.000000
    885 C912  c    0.596805 *  0.502820 *  0.390050 *  -0.07025    1.000000
    886 C912  c    0.598749 *  0.380767 *  0.387744 *  -0.07025    1.000000
    887 C916  c    0.570415 *  0.465654 *  0.358318 *   1.07050    1.000000
    888 C917  c    0.615459 *  0.432133 *  0.407736 *   1.07050    1.000000
    889 C902  c    0.581562 *  0.453416 *  0.371205 *   0.00500    1.000000
    890 C902  c    0.603338 *  0.438133 *  0.394769 *   0.00500    1.000000
    891 H915  c    0.580629 *  0.561126 *  0.374483 *   0.11250    1.000000
    892 H915  c    0.584659 *  0.343508 *  0.370365 *   0.11250    1.000000
    893 H915  c    0.600520 *  0.547098 *  0.395734 *   0.11250    1.000000
    894 H915  c    0.604048 *  0.330302 *  0.391630 *   0.11250    1.000000

  Molecule list generated from bond lengths :

  Total number of molecules =    22

Molecule No./:  Atoms
Periodicity  :
     1  0    : O3   c   186 H22  c   187
     2  0    : O3   c   195 H22  c   196
     3  0    : O177 c   543 O177 c   544 O176 c   545 O176 c   546 C912 c   627
             : C912 c   628 C912 c   629 C912 c   630 C917 c   631 C916 c   632
             : C902 c   633 C902 c   634 H915 c   779 H915 c   780 H915 c   781
             : H915 c   782
     4  0    : O170 c   549 O170 c   551 O170 c   570 O170 c   572 C912 c   635
             : C912 c   637 C912 c   656 C912 c   658 C913 c   659 C913 c   670
             : C902 c   671 C902 c   682 H915 c   783 H915 c   785 H915 c   804
             : H915 c   806
     5  0    : O170 c   550 O170 c   552 O170 c   569 O170 c   571 C912 c   636
             : C912 c   638 C912 c   655 C912 c   657 C913 c   660 C913 c   669
             : C902 c   672 C902 c   681 H915 c   784 H915 c   786 H915 c   803
             : H915 c   805
     6  0    : O170 c   553 O170 c   555 O170 c   565 O170 c   567 C912 c   639
             : C912 c   641 C912 c   651 C912 c   653 C913 c   661 C913 c   667
             : C902 c   673 C902 c   679 H915 c   787 H915 c   789 H915 c   799
             : H915 c   801
     7  0    : O170 c   554 O170 c   556 O170 c   566 O170 c   568 C912 c   640
             : C912 c   642 C912 c   652 C912 c   654 C913 c   662 C913 c   668
             : C902 c   674 C902 c   680 H915 c   788 H915 c   790 H915 c   800
             : H915 c   802
     8  0    : O170 c   557 O170 c   559 O170 c   562 O170 c   564 C912 c   643
             : C912 c   645 C912 c   648 C912 c   650 C913 c   663 C913 c   666
             : C902 c   675 C902 c   678 H915 c   791 H915 c   793 H915 c   796
             : H915 c   798
     9  0    : O170 c   558 O170 c   560 O170 c   561 O170 c   563 C912 c   644
             : C912 c   646 C912 c   647 C912 c   649 C913 c   664 C913 c   665
             : C902 c   676 C902 c   677 H915 c   792 H915 c   794 H915 c   795
             : H915 c   797
    10  0    : O170 c   575 O170 c   577 O170 c   596 O170 c   598 C912 c   683
             : C912 c   685 C912 c   704 C912 c   706 C913 c   707 C913 c   718
             : C902 c   719 C902 c   730 H915 c   807 H915 c   809 H915 c   828
             : H915 c   830
    11  0    : O170 c   576 O170 c   578 O170 c   595 O170 c   597 C912 c   684
             : C912 c   686 C912 c   703 C912 c   705 C913 c   708 C913 c   717
             : C902 c   720 C902 c   729 H915 c   808 H915 c   810 H915 c   827
             : H915 c   829
    12  0    : O170 c   579 O170 c   581 O170 c   591 O170 c   593 C912 c   687
             : C912 c   689 C912 c   699 C912 c   701 C913 c   709 C913 c   715
             : C902 c   721 C902 c   727 H915 c   811 H915 c   813 H915 c   823
             : H915 c   825
    13  0    : O170 c   580 O170 c   582 O170 c   592 O170 c   594 C912 c   688
             : C912 c   690 C912 c   700 C912 c   702 C913 c   710 C913 c   716
             : C902 c   722 C902 c   728 H915 c   812 H915 c   814 H915 c   824
             : H915 c   826
    14  0    : O170 c   583 O170 c   585 O170 c   588 O170 c   590 C912 c   691
             : C912 c   693 C912 c   696 C912 c   698 C913 c   711 C913 c   714
             : C902 c   723 C902 c   726 H915 c   815 H915 c   817 H915 c   820
             : H915 c   822
    15  0    : O170 c   584 O170 c   586 O170 c   587 O170 c   589 C912 c   692
             : C912 c   694 C912 c   695 C912 c   697 C913 c   712 C913 c   713
             : C902 c   724 C902 c   725 H915 c   816 H915 c   818 H915 c   819
             : H915 c   821
    16  0    : O170 c   601 O170 c   603 O170 c   624 O170 c   626 C912 c   731
             : C912 c   733 C912 c   752 C912 c   754 C913 c   755 C913 c   766
             : C902 c   767 C902 c   778 H915 c   831 H915 c   833 H915 c   852
             : H915 c   854
    17  0    : O170 c   602 O170 c   604 O170 c   623 O170 c   625 C912 c   732
             : C912 c   734 C912 c   751 C912 c   753 C913 c   756 C913 c   765
             : C902 c   768 C902 c   777 H915 c   832 H915 c   834 H915 c   851
             : H915 c   853
    18  0    : O170 c   605 O170 c   607 O170 c   619 O170 c   621 C912 c   735
[...]
   78.37   78.59   79.99   80.04   80.19   81.54   81.95   82.43   82.54
   82.88   83.22   83.93   84.18   84.65   84.81   86.45   87.36   89.62
   89.85   90.75   90.79   90.91   91.13   92.09   92.17   92.87   93.31
   93.51   94.58   95.61   95.88   96.05   96.62   96.78   96.99   97.32
   97.94   98.15   98.21   98.70   99.45   99.84  100.19  100.76  101.05
  101.18  102.48  102.92  103.04  103.37  103.69  104.05  104.14  105.02
  105.22  106.21  106.28  106.34  106.46  106.68  107.20  107.51  108.01
  108.30  108.76  109.21  109.49  109.74  110.18  110.45  110.75  111.41
  111.56  111.74  112.37  112.69  113.02  113.55  113.80  114.37  114.48
  115.07  115.44  115.80  115.94  116.80  117.66  118.03  118.96  119.19
  119.30  119.65  120.22  120.70  120.83  121.01  122.15  122.29  123.18
  123.36  123.40  123.60  124.08  124.81  125.14  125.64  125.74  125.84
  125.86  125.92  125.95  126.37  126.43  126.62  126.84  127.09  127.13
  127.32  127.40  127.43  127.69  127.92  128.10  128.47  129.14  130.60
  130.95  131.68  131.96  132.46  133.48  133.83  133.90  134.80  135.10
  135.42  135.69  136.23  136.72  136.98  137.35  137.48  137.91  138.10
  139.14  139.49  139.86  139.94  140.07  140.23  140.62  140.72  141.07
  141.44  141.69  141.75  142.40  142.58  142.93  143.05  143.44  143.62
  143.91  144.35  145.32  145.71  145.86  145.97  146.14  146.57  146.65
  146.99  147.09  147.35  147.53  147.91  148.31  148.35  148.74  149.07
  149.12  149.49  149.59  149.85  149.87  150.89  151.07  151.13  151.35
  151.40  151.83  151.90  151.95  152.23  152.65  152.88  152.99  153.15
  153.23  153.40  153.73  153.81  153.92  154.13  154.48  154.64  155.16
  155.40  155.55  156.22  156.44  156.53  156.88  156.96  157.54  157.74
  158.18  158.53  158.87  159.07  159.37  159.60  160.45  161.39  161.93
  163.22  163.42  163.65  164.43  164.59  164.88  165.34  165.40  165.72
  165.87  166.09  166.60  167.20  167.27  167.40  167.52  167.56  167.76
  167.85  167.88  168.18  168.66  168.92  169.32  169.66  169.98  171.06
  171.11  171.63  171.98  172.07  172.18  172.20  172.28  172.78  173.04
  173.19  173.46  173.54  174.29  174.67  174.86  175.00  175.11  175.46
  175.90  176.10  176.40  176.65  176.99  177.02  177.13  177.23  177.85
  178.08  178.26  178.65  179.10  179.23  179.42  179.82  179.92  180.02
  180.36  180.70  180.99  181.30  181.69  181.90  182.08  182.42  182.57
  182.69  182.78  183.21  183.50  183.78  184.01  184.35  184.43  185.16
  185.41  185.52  185.62  186.17  186.84  187.00  187.44  187.85  188.19
  188.80  189.06  189.19  189.36  189.42  189.71  189.96  190.08  190.40
  190.58  190.71  191.24  191.42  191.71  191.93  191.96  192.40  192.53
  192.70  193.21  193.59  193.89  194.07  194.17  194.33  194.58  194.84
  194.89  195.10  195.19  195.45  195.85  196.03  196.54  196.67  197.08
  197.29  197.41  197.95  198.37  198.68  198.83  199.19  199.86  200.16
  200.50  201.53  202.01  202.56  203.10  203.19  203.59  203.89  204.17
  204.54  204.91  204.96  205.23  205.58  205.64  205.86  206.07  206.14
  206.51  206.99  207.29  207.68  208.22  208.72  209.04  209.60  210.13
  210.59  210.83  211.06  211.23  211.89  212.05  212.39  212.56  212.80
  212.99  213.29  213.88  214.10  214.38  214.54  214.57  214.75  214.91
  215.05  215.19  215.42  215.54  215.64  215.84  215.91  216.08  216.19
  216.26  216.52  216.71  216.81  217.11  217.16  217.35  217.52  217.85
  217.95  218.31  218.37  218.43  218.59  218.70  219.41  219.67  219.70
  220.12  220.27  220.63  220.94  221.16  221.43  221.71  221.74  222.16
  222.49  222.72  222.89  223.52  223.64  223.80  224.33  224.41  224.82
[...]
 1491.10 1491.12 1491.27 1491.31 1491.36 1491.39 1491.41 1491.47 1491.98
 1492.06 1492.17 1609.93 1609.99 1610.06 1611.19 1611.23 1611.30 1611.41
 1611.68 1611.89 1612.04 1612.12 1612.33 1612.46 1612.57 1612.72 1612.79
 1613.03 1613.16 1622.85 1623.01 1623.26 1624.20 1624.49 1624.82 1624.91
 1624.95 1625.17 1625.59 1625.65 1625.76 1625.83 1625.94 1626.11 1626.29
 1626.51 1626.52 1626.89 1627.59 1665.93 1665.98 2943.36 2943.52 2943.52
 2943.79 2943.85 2943.85 2943.86 2943.87 2943.89 2943.89 2943.90 2943.91
 2943.91 2943.91 2943.93 2943.94 2943.95 2943.95 2943.96 2943.98 2943.99
 2944.03 2944.05 2944.07 2944.09 2944.09 2944.14 2944.15 2944.17 2944.18
 2944.20 2944.21 2944.21 2944.23 2944.25 2944.29 2944.29 2944.31 2944.33
 2944.33 2944.37 2944.37 2944.40 2944.43 2944.43 2944.44 2944.47 2944.49
 2944.50 2944.52 2944.56 2944.59 2944.60 2944.63 2944.64 2944.68 2944.75
 2944.77 2944.77 2944.90 2945.28 2945.31 2945.33 2945.34 2945.35 2945.37
 2945.37 2945.38 2945.41 2945.42 2945.47 2945.47 2945.48 2945.54 2945.55
 2945.59 2945.64 2945.82 2945.89 2946.07 3684.25 3684.41 3685.49 3689.91

  Phonon properties (per mole of unit cells): Temperature =      0.000 K
  Zero point energy            =       99.160401 eV

  Phonon density of states :

 Frequency (cm-1) Density of States
    0.00000 |****************                                              0.023
   57.65490 |*****************************                                 0.041
  115.30979 |***********************************************               0.066
  172.96469 |*********************************************************     0.080
  230.61959 |************************************************              0.068
  288.27448 |************************************************************  0.083
  345.92938 |*********************************************                 0.063
  403.58428 |**********************************************************    0.082
  461.23917 |**********************************************************    0.081
  518.89407 |************************************                          0.051
  576.54897 |*************************************                         0.051
  634.20386 |*******************************                               0.044
  691.85876 |************************************                          0.051
  749.51366 |****************                                              0.023
  807.16855 |**************                                                0.020
  864.82345 |**********                                                    0.014
  922.47835 |****************                                              0.022
  980.13324 |**********                                                    0.015
 1037.78814 |                                                              0.000
 1095.44304 |                                                              0.001
 1153.09793 |****************                                              0.022
 1210.75283 |*****                                                         0.007
 1268.40773 |*****                                                         0.007
 1326.06262 |*****                                                         0.007
 1383.71752 |****************                                              0.022
 1441.37242 |*****                                                         0.007
 1499.02731 |                                                              0.000
 1556.68221 |****                                                          0.007
 1614.33710 |*****                                                         0.008
 1671.99200 |                                                              0.000
 1729.64690 |                                                              0.000
 1787.30179 |                                                              0.000
 1844.95669 |                                                              0.000
 1902.61159 |                                                              0.000
 1960.26648 |                                                              0.000
 2017.92138 |                                                              0.000
 2075.57628 |                                                              0.000
 2133.23117 |                                                              0.000
 2190.88607 |                                                              0.000
 2248.54097 |                                                              0.000
 2306.19586 |                                                              0.000
 2363.85076 |                                                              0.000
 2421.50566 |                                                              0.000
 2479.16055 |                                                              0.000
 2536.81545 |                                                              0.000
 2594.47035 |                                                              0.000
 2652.12524 |                                                              0.000
 2709.78014 |                                                              0.000
 2767.43504 |                                                              0.000
 2825.08993 |                                                              0.000
 2882.74483 |                                                              0.000
 2940.39973 |*********************                                         0.030
 2998.05462 |                                                              0.000
 3055.70952 |                                                              0.000
 3113.36442 |                                                              0.000
 3171.01931 |                                                              0.000
 3228.67421 |                                                              0.000
 3286.32911 |                                                              0.000
 3343.98400 |                                                              0.000
 3401.63890 |                                                              0.000
 3459.29380 |                                                              0.000
 3516.94869 |                                                              0.000
 3574.60359 |                                                              0.000
 3632.25849 |*                                                             0.001

  Time to end of optimisation =    4052.7513 seconds

  Electrostatic potential at atomic positions :

 Site  Atomic      Potential                Derivatives (V/Angs)
 No.   Label          (V)                 x           y           z
     1 Ti    c    -23.118949          -1.762104   -0.194588   -0.074213
     2 Ti    c    -24.575764           0.103242    0.004178   -1.623721
     3 Ti    c    -24.664031          -0.022255    0.000870   -1.626075
     4 Ti    c    -24.459118          -0.272183   -0.025993   -1.418872
     5 Ti    c    -23.661196          -1.248138   -0.304041   -0.495387
     6 Ti    c    -23.628811           1.265536   -0.289064   -0.476170
     7 Ti    c    -24.370465           0.196355    0.032916   -1.441538
     8 Ti    c    -25.216641           0.042070    0.163057   -1.630915
     9 Ti    c    -25.087396          -0.116163   -0.013425   -1.639050
    10 Ti    c    -24.898586          -0.085288   -0.024429   -1.653966
    11 Ti    c    -24.824614          -0.031872   -0.050223   -1.654874
    12 Ti    c    -24.842342           0.069036   -0.094394   -1.642678
    13 Ti    c    -24.997226           0.121950    0.027621   -1.623296
    14 Ti    c    -23.363034           1.748977   -0.448176   -0.118396
    15 Ti    c    -24.573221           0.366951   -0.005703   -1.363270
    16 Ti    c    -24.807299           0.048152    0.038358   -1.617980
    17 Ti    c    -24.783059          -0.095560   -0.014770   -1.640126
    18 Ti    c    -24.419844          -0.431020    0.063693   -1.414204
    19 Ti    c    -22.686656           0.017786    0.202273    1.546882
    20 Ti    c    -22.650934          -0.108205    0.181476    1.507220
    21 Ti    c    -22.544796          -0.128563    0.302209    1.568284
    22 Ti    c    -22.990365          -0.240848   -0.092064    1.562542
    23 Ti    c    -22.628706          -0.059732   -0.100612    1.509223
    24 Ti    c    -22.725428           0.088248   -0.273224    1.620208
    25 Ti    c    -22.573125           0.029580   -0.046539    1.492619
    26 Ti    c    -23.507216          -0.084952    0.335610   -0.232282
    27 Ti    c    -22.467533          -0.462045    0.311800    1.698131
    28 Ti    c    -22.652700           0.092047    0.205536    1.515042
    29 Ti    c    -22.847170           0.006454    0.198128    0.957266
    30 Ti    c    -22.532398           0.116915    0.359194    1.554569
    31 Ti    c    -24.072792           0.420232   -0.149999   -0.355554
    32 Ti    c    -24.135171          -0.245932   -0.243152   -0.549988
    33 Ti    c    -22.699809          -0.059195   -0.016468    1.518272
    34 Ti    c    -22.296963           0.056533    0.072880    1.524978
    35 Ti    c    -22.303528           0.301011    0.240986    1.571093
    36 Ti    c    -22.807832           0.151068   -0.005460    1.682243
    37 Ti    c    -23.283793          -0.115405    0.044107    0.022477
    38 Ti    c    -23.427482           0.023912    0.049024    0.150975
    39 Ti    c    -23.439151          -0.019214    0.043209    0.150077
    40 Ti    c    -23.423343          -0.030883   -0.015290    0.127156
    41 Ti    c    -23.353652          -0.026174    0.034328    0.142380
    42 Ti    c    -23.353497           0.014283    0.033919    0.147018
    43 Ti    c    -23.414306           0.038853    0.019993    0.129083
    44 Ti    c    -23.542356           0.033098   -0.123680    0.035680
    45 Ti    c    -23.658075          -0.113849    0.013112   -0.047845
    46 Ti    c    -23.538635          -0.122935   -0.005469    0.040389
    47 Ti    c    -23.442468          -0.031765    0.001602    0.128135
    48 Ti    c    -23.464702           0.051115    0.017470    0.045026
    49 Ti    c    -23.534519           0.192889   -0.117903   -0.070589
    50 Ti    c    -23.225769           0.024938    0.071429    0.145453
    51 Ti    c    -23.341491           0.101894   -0.060755    0.180854
    52 Ti    c    -23.460039           0.135402   -0.029945    0.028162
    53 Ti    c    -23.406990          -0.050173   -0.086444    0.114830
    54 Ti    c    -23.343274          -0.094034   -0.110036    0.146845
    55 Ti    c    -23.566524          -0.169706   -0.029349   -0.140088
    56 Ti    c    -23.597517           0.015080    0.053868   -0.114402
    57 Ti    c    -23.646582           0.026323    0.032329   -0.174549
    58 Ti    c    -23.657671           0.013901    0.041182   -0.142769
    59 Ti    c    -23.614408          -0.103653    0.043694   -0.154359
    60 Ti    c    -23.420290          -0.021456    0.052844    0.159777
[...]
   880 O176  c     18.945805           0.417596    3.040528   -1.066916
   881 O177  c     14.940955           0.063056   -4.569287    0.228853
   882 O177  c     14.715522          -0.340441    5.027942    0.719427
   883 C912  c      1.545610          -0.240868    0.727226   -1.197938
   884 C912  c      1.752701          -0.313879   -0.628720   -1.508386
   885 C912  c      1.283997           0.126229    0.549285    0.962819
   886 C912  c      1.396289           0.130519   -0.859035    0.805404
   887 C916  c    -15.093320           1.019698   -2.267564    5.473873
   888 C917  c    -17.400731          -1.260415    0.390880   -6.937487
   889 C902  c      2.148135          -0.736595    0.389224   -4.107885
   890 C902  c      1.417450           0.586724   -0.366741    3.441393
   891 H915  c     -1.460995           0.023214    0.295921    0.143079
   892 H915  c     -0.881072          -0.129133   -0.369115   -0.483154
   893 H915  c     -1.800537          -0.098379    0.531664   -0.327731
   894 H915  c     -1.577621          -0.066871   -0.474664   -0.331793

  Total time to end of lattice properties =    4070.9786 s

  Timing analysis for GULP :

  Task / Subroutine                                          Time (Seconds)
  Calculation of reciprocal space energy and derivatives       1051.1018
  Calculation of real space energy and derivatives             2518.1024
  Calculation of three-body energy and derivatives                8.1012
  Calculation of four-body energy and derivatives                 8.7403
  Calculation of molecules and connectivity                       0.3692
  Calculation of phonons                                         27.2701
  Calculation of scattering                                       0.0000
  Calculation of matrix inversion                               447.5083
  Symmetry generation of equivalent positions                     0.0078
  Global summation overhead                                       0.0092

  Dump file written as fit1.res

  Job Finished at 19:20.04 27th May        2016