  Job Started  at 09:41.43 18th May        2016

  Number of CPUs =     1

  Total number of configurations input =   1

*  Input for Configuration =   1                                               *

  Formula = Ti180O446H84C160Zn24

  Number of irreducible atoms/shells =     894

  Total number atoms/shells =     894

  Dimensionality = 3               :  Bulk

  Cartesian lattice vectors (Angstroms) :

       17.724000    0.000000    0.000000
        0.000000   19.461000    0.000000
        0.000000    0.000000  114.868482

  Cell parameters (Angstroms/Degrees):

  a =      17.7240    alpha =  90.0000
  b =      19.4610    beta  =  90.0000
  c =     114.8685    gamma =  90.0000

  Initial cell volume =       39621.213782 Angs**3

  Temperature of configuration =  0.000     K

  Pressure of configuration =         0.000 GPa

  Fractional coordinates of asymmetric unit :

   No.  Atomic       x           y          z         Charge      Occupancy
        Label      (Frac)      (Frac)     (Frac)        (e)         (Frac)
      1 Ti    c    0.320000    0.733333    0.339268     2.43600    1.000000
      2 Ti    c    0.148783 *  0.399280 *  0.341320 *   2.43600    1.000000
      3 Ti    c    0.981999 *  0.399822 *  0.341320 *   2.43600    1.000000
      4 Ti    c    0.815070 *  0.399939 *  0.341392 *   2.43600    1.000000
      5 Ti    c    0.650200 *  0.399590 *  0.339843 *   2.43600    1.000000
      6 Ti    c    0.481079 *  0.400011 *  0.339984 *   2.43600    1.000000
      7 Ti    c    0.316098 *  0.399488 *  0.341363 *   2.43600    1.000000
      8 Ti    c    0.148641 *  0.065894 *  0.340812 *   2.43600    1.000000
      9 Ti    c    0.982193 *  0.065942 *  0.341276 *   2.43600    1.000000
     10 Ti    c    0.815558 *  0.066295 *  0.341295 *   2.43600    1.000000
     11 Ti    c    0.648919 *  0.065818 *  0.341223 *   2.43600    1.000000
     12 Ti    c    0.481859 *  0.065951 *  0.341239 *   2.43600    1.000000
     13 Ti    c    0.315432 *  0.065856 *  0.341249 *   2.43600    1.000000
     14 Ti    c    0.143898 *  0.733417 *  0.338652 *   2.43600    1.000000
     15 Ti    c    0.981359 *  0.733220 *  0.341407 *   2.43600    1.000000
     16 Ti    c    0.815520 *  0.732761 *  0.341387 *   2.43600    1.000000
     17 Ti    c    0.649130 *  0.732084 *  0.341384 *   2.43600    1.000000
     18 Ti    c    0.483032 *  0.731873 *  0.341465 *   2.43600    1.000000
     19 Ti    c    0.065428 *  0.232319 *  0.339124 *   2.43600    1.000000
     20 Ti    c    0.898503 *  0.232938 *  0.339151 *   2.43600    1.000000
     21 Ti    c    0.731729 *  0.233526 *  0.339080 *   2.43600    1.000000
     22 Ti    c    0.899642 *  0.899396 *  0.339146 *   2.43600    1.000000
     23 Ti    c    0.565086 *  0.898391 *  0.339150 *   2.43600    1.000000
     24 Ti    c    0.397845 *  0.899352 *  0.339162 *   2.43600    1.000000
     25 Ti    c    0.898560 *  0.566430 *  0.339033 *   2.43600    1.000000
     26 Ti    c    0.565467 *  0.564965 *  0.340453 *   2.43600    1.000000
     27 Ti    c    0.398967 *  0.567060 *  0.338867 *   2.43600    1.000000
     28 Ti    c    0.232494 *  0.231979 *  0.339091 *   2.43600    1.000000
     29 Ti    c    0.565525 *  0.230828 *  0.339382 *   2.43600    1.000000
     30 Ti    c    0.399280 *  0.233482 *  0.339110 *   2.43600    1.000000
     31 Ti    c    0.231047 *  0.900908 *  0.340596 *   2.43600    1.000000
     32 Ti    c    0.066131 *  0.899860 *  0.340699 *   2.43600    1.000000
     33 Ti    c    0.732402 *  0.899273 *  0.339189 *   2.43600    1.000000
     34 Ti    c    0.232395 *  0.563959 *  0.338656 *   2.43600    1.000000
     35 Ti    c    0.065455 *  0.567356 *  0.339047 *   2.43600    1.000000
     36 Ti    c    0.731969 *  0.566608 *  0.338844 *   2.43600    1.000000
     37 Ti    c    0.315475 *  0.566181 *  0.311578 *   2.43600    1.000000
     38 Ti    c    0.148831 *  0.232844 *  0.311972 *   2.43600    1.000000
     39 Ti    c    0.982077 *  0.232907 *  0.311974 *   2.43600    1.000000
     40 Ti    c    0.815535 *  0.232772 *  0.311903 *   2.43600    1.000000
     41 Ti    c    0.648758 *  0.232567 *  0.312022 *   2.43600    1.000000
     42 Ti    c    0.482248 *  0.232562 *  0.312030 *   2.43600    1.000000
     43 Ti    c    0.315482 *  0.232773 *  0.311880 *   2.43600    1.000000
     44 Ti    c    0.148717 *  0.899727 *  0.313401 *   2.43600    1.000000
     45 Ti    c    0.982315 *  0.899598 *  0.312461 *   2.43600    1.000000
     46 Ti    c    0.815399 *  0.899411 *  0.311988 *   2.43600    1.000000
     47 Ti    c    0.648836 *  0.899194 *  0.312018 *   2.43600    1.000000
     48 Ti    c    0.482285 *  0.899260 *  0.311932 *   2.43600    1.000000
     49 Ti    c    0.315276 *  0.899560 *  0.312456 *   2.43600    1.000000
     50 Ti    c    0.148600 *  0.566131 *  0.311741 *   2.43600    1.000000
     51 Ti    c    0.982034 *  0.566097 *  0.311837 *   2.43600    1.000000
     52 Ti    c    0.815657 *  0.566272 *  0.311752 *   2.43600    1.000000
     53 Ti    c    0.648500 *  0.565820 *  0.312421 *   2.43600    1.000000
     54 Ti    c    0.482607 *  0.565761 *  0.312391 *   2.43600    1.000000
     55 Ti    c    0.400485 *  0.732420 *  0.312184 *   2.43600    1.000000
     56 Ti    c    0.231967 *  0.399446 *  0.312707 *   2.43600    1.000000
     57 Ti    c    0.065501 *  0.399300 *  0.312735 *   2.43600    1.000000
     58 Ti    c    0.899035 *  0.399521 *  0.312738 *   2.43600    1.000000
     59 Ti    c    0.733014 *  0.399104 *  0.312398 *   2.43600    1.000000
     60 Ti    c    0.565443 *  0.399102 *  0.312397 *   2.43600    1.000000
     61 Ti    c    0.398061 *  0.398892 *  0.312416 *   2.43600    1.000000
[...]
    880 Zn172 c    0.675722 *  0.397789 *  0.560220 *   2.00000    1.000000
    881 Zn172 c    0.849412 *  0.397779 *  0.560220 *   2.00000    1.000000
    882 Zn172 c    0.771074 *  0.484629 *  0.581029 *   2.00000    1.000000
    883 Zn172 c    0.357924 *  0.897779 *  0.581029 *   2.00000    1.000000
    884 Zn172 c    0.262562 *  0.984629 *  0.560220 *   2.00000    1.000000
    885 Zn172 c    0.184234 *  0.897789 *  0.581029 *   2.00000    1.000000
    886 Zn172 c    0.262572 *  0.810939 *  0.560220 *   2.00000    1.000000
    887 Zn172 c    0.320085 *  0.810939 *  0.700826 *   2.00000    1.000000
    888 Zn172 c    0.224723 *  0.897789 *  0.680018 *   2.00000    1.000000
    889 Zn172 c    0.398414 *  0.897779 *  0.680018 *   2.00000    1.000000
    890 Zn172 c    0.320075 *  0.984629 *  0.700826 *   2.00000    1.000000
    891 Zn172 c    0.906925 *  0.397779 *  0.700826 *   2.00000    1.000000
    892 Zn172 c    0.811564 *  0.484629 *  0.680018 *   2.00000    1.000000
    893 Zn172 c    0.733235 *  0.397789 *  0.700826 *   2.00000    1.000000
    894 Zn172 c    0.811574 *  0.310939 *  0.680018 *   2.00000    1.000000

  Molecule list generated from bond lengths :

  Total number of molecules =    22

Molecule No./:  Atoms
Periodicity  :
     1  0    : O3   c   186 H22  c   187
     2  0    : O3   c   199 H22  c   200
     3  0    : O176 c   543 O176 c   545 O177 c   548 O177 c   550 C912 c   631
             : C912 c   633 C912 c   636 C912 c   638 C916 c   639 C917 c   642
             : C902 c   643 C902 c   646 H915 c   791 H915 c   793 H915 c   796
             : H915 c   798
     4  0    : O177 c   544 O177 c   546 O176 c   547 O176 c   549 C912 c   632
             : C912 c   634 C912 c   635 C912 c   637 C917 c   640 C916 c   641
             : C902 c   644 C902 c   645 H915 c   792 H915 c   794 H915 c   795
             : H915 c   797
     5  0    : O170 c   553 O170 c   555 O170 c   574 O170 c   576 C912 c   647
             : C912 c   649 C912 c   668 C912 c   670 C913 c   671 C913 c   682
             : C902 c   683 C902 c   694 H915 c   799 H915 c   801 H915 c   820
             : H915 c   822
     6  0    : O170 c   554 O170 c   556 O170 c   573 O170 c   575 C912 c   648
             : C912 c   650 C912 c   667 C912 c   669 C913 c   672 C913 c   681
             : C902 c   684 C902 c   693 H915 c   800 H915 c   802 H915 c   819
             : H915 c   821
     7  0    : O170 c   557 O170 c   559 O170 c   569 O170 c   571 C912 c   651
             : C912 c   653 C912 c   663 C912 c   665 C913 c   673 C913 c   679
             : C902 c   685 C902 c   691 H915 c   803 H915 c   805 H915 c   815
             : H915 c   817
     8  0    : O170 c   558 O170 c   560 O170 c   570 O170 c   572 C912 c   652
             : C912 c   654 C912 c   664 C912 c   666 C913 c   674 C913 c   680
             : C902 c   686 C902 c   692 H915 c   804 H915 c   806 H915 c   816
             : H915 c   818
     9  0    : O170 c   561 O170 c   563 O170 c   566 O170 c   568 C912 c   655
             : C912 c   657 C912 c   660 C912 c   662 C913 c   675 C913 c   678
             : C902 c   687 C902 c   690 H915 c   807 H915 c   809 H915 c   812
             : H915 c   814
    10  0    : O170 c   562 O170 c   564 O170 c   565 O170 c   567 C912 c   656
             : C912 c   658 C912 c   659 C912 c   661 C913 c   676 C913 c   677
             : C902 c   688 C902 c   689 H915 c   808 H915 c   810 H915 c   811
             : H915 c   813
    11  0    : O170 c   579 O170 c   581 O170 c   600 O170 c   602 C912 c   695
             : C912 c   697 C912 c   716 C912 c   718 C913 c   719 C913 c   730
             : C902 c   731 C902 c   742 H915 c   823 H915 c   825 H915 c   844
             : H915 c   846
    12  0    : O170 c   580 O170 c   582 O170 c   599 O170 c   601 C912 c   696
             : C912 c   698 C912 c   715 C912 c   717 C913 c   720 C913 c   729
             : C902 c   732 C902 c   741 H915 c   824 H915 c   826 H915 c   843
             : H915 c   845
    13  0    : O170 c   583 O170 c   585 O170 c   595 O170 c   597 C912 c   699
             : C912 c   701 C912 c   711 C912 c   713 C913 c   721 C913 c   727
             : C902 c   733 C902 c   739 H915 c   827 H915 c   829 H915 c   839
             : H915 c   841
    14  0    : O170 c   584 O170 c   586 O170 c   596 O170 c   598 C912 c   700
             : C912 c   702 C912 c   712 C912 c   714 C913 c   722 C913 c   728
             : C902 c   734 C902 c   740 H915 c   828 H915 c   830 H915 c   840
             : H915 c   842
    15  0    : O170 c   587 O170 c   589 O170 c   592 O170 c   594 C912 c   703
             : C912 c   705 C912 c   708 C912 c   710 C913 c   723 C913 c   726
             : C902 c   735 C902 c   738 H915 c   831 H915 c   833 H915 c   836
             : H915 c   838
    16  0    : O170 c   588 O170 c   590 O170 c   591 O170 c   593 C912 c   704
             : C912 c   706 C912 c   707 C912 c   709 C913 c   724 C913 c   725
             : C902 c   736 C902 c   737 H915 c   832 H915 c   834 H915 c   835
             : H915 c   837
    17  0    : O170 c   605 O170 c   607 O170 c   628 O170 c   630 C912 c   743
             : C912 c   745 C912 c   764 C912 c   766 C913 c   767 C913 c   778
             : C902 c   779 C902 c   790 H915 c   847 H915 c   849 H915 c   868
             : H915 c   870
    18  0    : O170 c   606 O170 c   608 O170 c   627 O170 c   629 C912 c   744
[...]
   78.75   79.72   79.88   79.91   81.26   81.57   81.80   82.13   82.53
   82.80   83.30   83.91   84.24   84.54   84.80   86.34   86.52   89.56
   89.64   90.60   90.69   90.82   91.07   92.05   92.09   93.00   93.12
   93.23   94.46   94.55   95.50   95.69   96.01   96.54   96.80   97.04
   97.43   97.65   98.02   98.41   99.41   99.83  100.16  100.68  101.05
  101.34  102.40  102.60  102.96  103.28  103.62  104.03  104.33  105.19
  105.46  106.20  106.30  106.39  106.42  106.66  107.23  107.40  108.00
  108.15  108.77  109.04  109.26  110.01  110.07  110.44  110.64  111.06
  111.43  111.79  112.23  112.91  113.09  113.65  113.87  114.38  114.46
  114.94  115.12  115.81  116.26  116.76  117.25  117.83  118.73  119.09
  119.24  119.48  119.61  120.61  120.78  121.04  122.23  122.45  122.80
  123.28  123.38  123.62  123.91  124.04  125.13  125.58  125.66  125.68
  125.79  125.89  126.05  126.13  126.41  126.68  126.95  126.99  127.17
  127.29  127.48  127.57  127.69  127.83  128.08  128.34  128.62  130.48
  130.96  131.29  131.74  133.32  133.52  134.36  134.66  135.04  135.07
  135.63  136.21  136.49  137.34  137.39  137.75  137.86  138.11  138.49
  138.70  139.47  139.51  139.88  140.00  140.32  140.56  140.72  141.15
  141.42  141.76  142.01  142.18  142.37  142.89  143.07  143.62  143.72
  144.21  144.53  144.85  145.33  145.84  145.89  146.18  146.56  146.63
  147.01  147.08  147.26  147.43  147.70  148.18  148.44  148.72  148.78
  149.06  149.22  149.48  149.70  150.12  150.56  150.73  151.08  151.24
  151.56  151.62  151.88  151.99  152.05  152.44  152.62  153.05  153.15
  153.22  153.27  153.72  153.78  153.91  154.07  154.46  154.96  155.06
  155.37  155.53  156.47  156.49  156.58  156.91  157.05  157.73  157.94
  158.37  158.52  158.87  159.32  159.46  159.88  161.16  161.37  161.71
  162.05  163.42  163.91  164.09  164.43  164.57  164.68  165.29  165.81
  166.06  166.23  166.76  167.14  167.25  167.37  167.59  167.62  167.72
  167.83  168.13  168.16  168.70  168.74  168.95  169.12  169.37  170.61
  171.18  171.62  171.80  171.90  172.19  172.21  172.30  172.74  173.17
  173.26  173.48  173.55  173.92  174.43  174.73  174.99  175.34  176.08
  176.12  176.34  176.45  176.78  176.95  177.15  177.24  177.30  177.63
  177.86  178.30  178.63  179.09  179.15  179.55  179.86  180.03  180.11
  180.32  180.76  181.24  181.56  181.83  182.09  182.26  182.37  182.63
  182.65  182.68  182.87  183.21  183.49  183.78  183.94  184.59  185.06
  185.30  185.61  185.69  186.20  186.84  186.95  187.39  187.73  187.92
  188.69  188.85  189.07  189.56  189.73  189.80  189.88  190.04  190.27
  190.59  190.72  191.11  191.29  191.67  191.76  191.99  192.26  192.54
  192.60  193.25  193.34  193.48  193.84  194.13  194.21  194.57  194.86
  194.96  195.03  195.23  195.41  195.67  196.05  196.38  197.06  197.20
  197.37  197.83  198.14  198.37  198.64  198.88  199.35  199.93  200.46
  200.66  201.13  202.11  202.73  202.80  202.99  203.57  203.60  203.78
  204.06  204.55  204.63  205.17  205.47  205.71  205.86  206.05  206.16
  206.57  206.90  207.01  207.52  208.17  208.52  208.79  209.07  209.20
  210.32  210.81  211.16  211.56  211.66  211.83  212.29  212.62  213.07
  213.27  213.36  213.81  213.95  214.11  214.18  214.36  214.50  214.69
  214.83  215.07  215.12  215.40  215.46  215.61  215.87  216.15  216.19
  216.44  216.50  216.61  216.93  217.11  217.14  217.28  217.44  217.47
  218.14  218.29  218.47  218.48  218.57  218.75  219.11  219.24  219.72
  219.83  220.18  220.45  220.93  221.02  221.48  221.69  221.79  221.83
  222.26  222.39  222.68  222.83  222.89  223.51  224.03  224.32  224.87
[...]
 1491.04 1491.07 1491.25 1491.30 1491.33 1491.36 1491.38 1491.44 1491.95
 1492.04 1492.12 1609.96 1609.99 1610.05 1611.20 1611.23 1611.28 1611.51
 1611.74 1611.96 1612.14 1612.28 1612.40 1612.53 1612.64 1612.78 1612.89
 1613.11 1613.28 1622.86 1623.02 1623.27 1624.68 1624.85 1625.08 1625.30
 1625.39 1625.52 1625.75 1625.75 1625.76 1625.93 1625.95 1626.18 1626.44
 1626.57 1626.68 1627.13 1628.40 1665.94 1665.98 2943.48 2943.52 2943.52
 2943.80 2943.85 2943.85 2943.86 2943.88 2943.89 2943.90 2943.90 2943.91
 2943.92 2943.93 2943.93 2943.95 2943.96 2943.97 2943.98 2943.99 2943.99
 2944.05 2944.07 2944.08 2944.10 2944.15 2944.15 2944.16 2944.18 2944.20
 2944.21 2944.22 2944.24 2944.25 2944.30 2944.31 2944.32 2944.33 2944.34
 2944.38 2944.38 2944.40 2944.44 2944.45 2944.46 2944.48 2944.49 2944.50
 2944.52 2944.56 2944.59 2944.61 2944.64 2944.65 2944.69 2944.75 2944.76
 2944.78 2944.88 2945.15 2945.29 2945.31 2945.34 2945.35 2945.35 2945.38
 2945.39 2945.42 2945.43 2945.44 2945.48 2945.49 2945.55 2945.58 2945.60
 2945.63 2945.66 2945.84 2945.92 2946.33 3684.25 3684.41 3685.43 3689.13

  Phonon properties (per mole of unit cells): Temperature =      0.000 K
  Zero point energy            =       99.154376 eV

  Phonon density of states :

 Frequency (cm-1) Density of States
    0.00000 |****************                                              0.022
   57.64265 |******************************                                0.042
  115.28530 |***********************************************               0.066
  172.92795 |**********************************************************    0.081
  230.57060 |************************************************              0.068
  288.21325 |************************************************************  0.083
  345.85590 |*********************************************                 0.063
  403.49855 |**********************************************************    0.081
  461.14120 |*********************************************************     0.080
  518.78385 |*************************************                         0.052
  576.42650 |*************************************                         0.051
  634.06915 |*******************************                               0.044
  691.71180 |************************************                          0.050
  749.35445 |****************                                              0.023
  806.99711 |**************                                                0.020
  864.63976 |**********                                                    0.014
  922.28241 |****************                                              0.022
  979.92506 |**********                                                    0.015
 1037.56771 |                                                              0.000
 1095.21036 |                                                              0.001
 1152.85301 |****************                                              0.022
 1210.49566 |*****                                                         0.007
 1268.13831 |*****                                                         0.007
 1325.78096 |*****                                                         0.007
 1383.42361 |****************                                              0.022
 1441.06626 |*****                                                         0.007
 1498.70891 |                                                              0.000
 1556.35156 |****                                                          0.007
 1613.99421 |*****                                                         0.008
 1671.63686 |                                                              0.000
 1729.27951 |                                                              0.000
 1786.92216 |                                                              0.000
 1844.56481 |                                                              0.000
 1902.20746 |                                                              0.000
 1959.85011 |                                                              0.000
 2017.49276 |                                                              0.000
 2075.13541 |                                                              0.000
 2132.77806 |                                                              0.000
 2190.42071 |                                                              0.000
 2248.06336 |                                                              0.000
 2305.70601 |                                                              0.000
 2363.34867 |                                                              0.000
 2420.99132 |                                                              0.000
 2478.63397 |                                                              0.000
 2536.27662 |                                                              0.000
 2593.91927 |                                                              0.000
 2651.56192 |                                                              0.000
 2709.20457 |                                                              0.000
 2766.84722 |                                                              0.000
 2824.48987 |                                                              0.000
 2882.13252 |                                                              0.000
 2939.77517 |*********************                                         0.030
 2997.41782 |                                                              0.000
 3055.06047 |                                                              0.000
 3112.70312 |                                                              0.000
 3170.34577 |                                                              0.000
 3227.98842 |                                                              0.000
 3285.63107 |                                                              0.000
 3343.27372 |                                                              0.000
 3400.91637 |                                                              0.000
 3458.55902 |                                                              0.000
 3516.20167 |                                                              0.000
 3573.84432 |                                                              0.000
 3631.48697 |*                                                             0.001

  Time to end of optimisation =   13290.1702 seconds

  Electrostatic potential at atomic positions :

 Site  Atomic      Potential                Derivatives (V/Angs)
 No.   Label          (V)                 x           y           z
     1 Ti    c    -24.654755           0.682505   -0.022643   -1.370825
     2 Ti    c    -24.799723           0.069006   -0.019045   -1.651064
     3 Ti    c    -24.759340          -0.134845   -0.017434   -1.633616
     4 Ti    c    -24.386364          -0.379469   -0.020283   -1.403884
     5 Ti    c    -23.457061          -1.288325   -0.237075   -0.464600
     6 Ti    c    -23.503901           1.391447   -0.229521   -0.452764
     7 Ti    c    -24.504507           0.354999    0.001759   -1.447810
     8 Ti    c    -25.415728           0.027001    0.144005   -1.641643
     9 Ti    c    -25.186651          -0.222625   -0.007065   -1.637889
    10 Ti    c    -24.821543          -0.204248   -0.039158   -1.640971
    11 Ti    c    -24.612820          -0.062628   -0.058372   -1.631120
    12 Ti    c    -24.710620           0.206217   -0.108750   -1.626175
    13 Ti    c    -25.117239           0.257722    0.010518   -1.627643
    14 Ti    c    -25.299439           0.113994   -0.125836   -1.607734
    15 Ti    c    -25.062225          -0.320406    0.031462   -1.603757
    16 Ti    c    -24.339047          -0.638451    0.035141   -1.381173
    17 Ti    c    -22.772828          -1.825543    0.037746   -0.051324
    18 Ti    c    -22.912733           1.937745    0.074873   -0.064193
    19 Ti    c    -22.828412          -0.085009    0.203617    1.559525
    20 Ti    c    -22.660903          -0.235966    0.191011    1.506941
    21 Ti    c    -22.427001          -0.224453    0.281612    1.558677
    22 Ti    c    -22.991683          -0.549048   -0.120109    1.572886
    23 Ti    c    -22.247347           0.091009   -0.241295    1.514237
    24 Ti    c    -22.678419           0.777424   -0.369153    1.601173
    25 Ti    c    -22.583830          -0.288667   -0.044827    1.497407
    26 Ti    c    -23.101048           0.045171    0.485735   -0.116857
    27 Ti    c    -22.468743           0.316100    0.238006    1.710875
    28 Ti    c    -22.782534           0.164024    0.222404    1.542178
    29 Ti    c    -22.720423           0.057669    0.191704    0.947741
    30 Ti    c    -22.540197           0.318947    0.341213    1.550989
    31 Ti    c    -24.459811           0.617994   -0.127951   -0.521046
    32 Ti    c    -24.553468          -0.509319   -0.064430   -0.560574
    33 Ti    c    -22.259409          -0.428967   -0.368527    1.540329
    34 Ti    c    -22.699284           0.227658   -0.083679    1.531621
    35 Ti    c    -22.780196          -0.090024   -0.134229    1.565113
    36 Ti    c    -22.355987          -0.226520    0.283569    1.738752
    37 Ti    c    -23.443411           0.063041   -0.077972    0.044608
    38 Ti    c    -23.518878           0.024790    0.043342    0.145988
    39 Ti    c    -23.492620          -0.086476    0.042782    0.139975
    40 Ti    c    -23.388297          -0.095009   -0.015645    0.133227
    41 Ti    c    -23.272497          -0.031369    0.031901    0.148970
    42 Ti    c    -23.315115           0.082386    0.032206    0.144427
    43 Ti    c    -23.461653           0.107235    0.015586    0.128640
    44 Ti    c    -23.796918           0.041514   -0.000525    0.035834
    45 Ti    c    -23.773051          -0.312390   -0.002334   -0.073282
    46 Ti    c    -23.437561          -0.305019    0.022008    0.075359
    47 Ti    c    -23.191379          -0.032755   -0.112736    0.127581
    48 Ti    c    -23.303716           0.207893   -0.106771    0.039972
    49 Ti    c    -23.680930           0.403270    0.022805   -0.038833
    50 Ti    c    -23.482853           0.032887   -0.034636    0.150400
    51 Ti    c    -23.457346          -0.092784   -0.034592    0.141230
    52 Ti    c    -23.370633          -0.047221   -0.051268    0.044370
    53 Ti    c    -23.157563          -0.057710    0.026583    0.120056
    54 Ti    c    -23.203796           0.105555    0.018151    0.112861
    55 Ti    c    -23.579640           0.336980   -0.030475   -0.154824
    56 Ti    c    -23.709300           0.073664    0.036388   -0.160728
    57 Ti    c    -23.748356          -0.025728    0.017315   -0.203354
    58 Ti    c    -23.668156          -0.102008    0.038062   -0.141859
    59 Ti    c    -23.531964          -0.159708    0.058960   -0.130812
    60 Ti    c    -23.325727           0.034883    0.066136    0.205253
[...]
   880 Zn172 c    -20.587178          -0.527210    0.003010    0.086444
   881 Zn172 c    -20.541526           0.512242    0.002410    0.043873
   882 Zn172 c    -20.974970          -0.011888    0.238706    0.086343
   883 Zn172 c    -20.604519           0.546048    0.000664   -0.131174
   884 Zn172 c    -21.001470           0.022905    0.267766   -0.035080
   885 Zn172 c    -20.568684          -0.547783    0.001233   -0.110783
   886 Zn172 c    -20.994521           0.021559   -0.269707   -0.040842
   887 Zn172 c    -20.885167          -0.007608   -0.274300    0.125398
   888 Zn172 c    -20.661192          -0.480655    0.001296    0.108627
   889 Zn172 c    -20.634682           0.470549    0.001160    0.084231
   890 Zn172 c    -20.891935          -0.006160    0.281376    0.114847
   891 Zn172 c    -20.668840           0.502562   -0.002604   -0.141429
   892 Zn172 c    -20.906985           0.006891    0.307809   -0.056945
   893 Zn172 c    -20.661886          -0.512586   -0.004847   -0.146159
   894 Zn172 c    -20.907805           0.007030   -0.307028   -0.058436

  Total time to end of lattice properties =   13324.1265 s

  Timing analysis for GULP :

  Task / Subroutine                                          Time (Seconds)
  Calculation of reciprocal space energy and derivatives       3084.7620
  Calculation of real space energy and derivatives             8691.4993
  Calculation of three-body energy and derivatives               27.8405
  Calculation of four-body energy and derivatives                29.9746
  Calculation of molecules and connectivity                       0.9864
  Calculation of phonons                                         42.9436
  Calculation of scattering                                       0.0000
  Calculation of matrix inversion                              1407.5107
  Symmetry generation of equivalent positions                     0.0132
  Global summation overhead                                       0.0276

  Dump file written as fit1.res

  Job Finished at 13:57.19 18th May        2016