  Job Started  at 19:02.19 17th May        2016

  Number of CPUs =     1

  Total number of configurations input =   1

*  Input for Configuration =   1                                               *

  Formula = Ti180O394H36C64Zn8

  Number of irreducible atoms/shells =     682

  Total number atoms/shells =     682

  Dimensionality = 3               :  Bulk

  Cartesian lattice vectors (Angstroms) :

       17.724000    0.000000    0.000000
        0.000000   19.461000    0.000000
        0.000000    0.000000   85.817500

  Cell parameters (Angstroms/Degrees):

  a =      17.7240    alpha =  90.0000
  b =      19.4610    beta  =  90.0000
  c =      85.8175    gamma =  90.0000

  Initial cell volume =       29600.752570 Angs**3

  Temperature of configuration =  0.000     K

  Pressure of configuration =         0.000 GPa

  Fractional coordinates of asymmetric unit :

   No.  Atomic       x           y          z         Charge      Occupancy
        Label      (Frac)      (Frac)     (Frac)        (e)         (Frac)
      1 Ti    c    0.320000    0.733333    0.454117     2.43600    1.000000
      2 Ti    c    0.148778 *  0.399221 *  0.456859 *   2.43600    1.000000
      3 Ti    c    0.981989 *  0.399764 *  0.456860 *   2.43600    1.000000
      4 Ti    c    0.815061 *  0.399883 *  0.456955 *   2.43600    1.000000
      5 Ti    c    0.650271 *  0.399385 *  0.454804 *   2.43600    1.000000
      6 Ti    c    0.481166 *  0.400049 *  0.455157 *   2.43600    1.000000
      7 Ti    c    0.316097 *  0.399422 *  0.456921 *   2.43600    1.000000
      8 Ti    c    0.148629 *  0.065834 *  0.456189 *   2.43600    1.000000
      9 Ti    c    0.982181 *  0.065884 *  0.456797 *   2.43600    1.000000
     10 Ti    c    0.815556 *  0.066208 *  0.456821 *   2.43600    1.000000
     11 Ti    c    0.648910 *  0.065734 *  0.456722 *   2.43600    1.000000
     12 Ti    c    0.481852 *  0.065905 *  0.456744 *   2.43600    1.000000
     13 Ti    c    0.315433 *  0.065827 *  0.456767 *   2.43600    1.000000
     14 Ti    c    0.143895 *  0.733345 *  0.453280 *   2.43600    1.000000
     15 Ti    c    0.981358 *  0.733160 *  0.456971 *   2.43600    1.000000
     16 Ti    c    0.815517 *  0.732688 *  0.456947 *   2.43600    1.000000
     17 Ti    c    0.649132 *  0.732007 *  0.456942 *   2.43600    1.000000
     18 Ti    c    0.483028 *  0.731826 *  0.457057 *   2.43600    1.000000
     19 Ti    c    0.065421 *  0.232260 *  0.453921 *   2.43600    1.000000
     20 Ti    c    0.898496 *  0.232895 *  0.453955 *   2.43600    1.000000
     21 Ti    c    0.731740 *  0.233370 *  0.453855 *   2.43600    1.000000
     22 Ti    c    0.899623 *  0.899334 *  0.453943 *   2.43600    1.000000
     23 Ti    c    0.565074 *  0.898313 *  0.453953 *   2.43600    1.000000
     24 Ti    c    0.397829 *  0.899334 *  0.453975 *   2.43600    1.000000
     25 Ti    c    0.898557 *  0.566382 *  0.453793 *   2.43600    1.000000
     26 Ti    c    0.565471 *  0.564911 *  0.455698 *   2.43600    1.000000
     27 Ti    c    0.398965 *  0.567024 *  0.453588 *   2.43600    1.000000
     28 Ti    c    0.232489 *  0.231906 *  0.453879 *   2.43600    1.000000
     29 Ti    c    0.565526 *  0.230704 *  0.454256 *   2.43600    1.000000
     30 Ti    c    0.399293 *  0.233499 *  0.453910 *   2.43600    1.000000
     31 Ti    c    0.231008 *  0.900872 *  0.455904 *   2.43600    1.000000
     32 Ti    c    0.066097 *  0.899792 *  0.456003 *   2.43600    1.000000
     33 Ti    c    0.732388 *  0.899192 *  0.454004 *   2.43600    1.000000
     34 Ti    c    0.232398 *  0.563901 *  0.453299 *   2.43600    1.000000
     35 Ti    c    0.065450 *  0.567282 *  0.453815 *   2.43600    1.000000
     36 Ti    c    0.731965 *  0.566516 *  0.453536 *   2.43600    1.000000
     37 Ti    c    0.315479 *  0.566110 *  0.417058 *   2.43600    1.000000
     38 Ti    c    0.148826 *  0.232774 *  0.417579 *   2.43600    1.000000
     39 Ti    c    0.982073 *  0.232835 *  0.417579 *   2.43600    1.000000
     40 Ti    c    0.815535 *  0.232696 *  0.417478 *   2.43600    1.000000
     41 Ti    c    0.648752 *  0.232492 *  0.417642 *   2.43600    1.000000
     42 Ti    c    0.482236 *  0.232494 *  0.417652 *   2.43600    1.000000
     43 Ti    c    0.315480 *  0.232715 *  0.417461 *   2.43600    1.000000
     44 Ti    c    0.148719 *  0.899652 *  0.419486 *   2.43600    1.000000
     45 Ti    c    0.982302 *  0.899525 *  0.418223 *   2.43600    1.000000
     46 Ti    c    0.815387 *  0.899337 *  0.417594 *   2.43600    1.000000
     47 Ti    c    0.648825 *  0.899122 *  0.417636 *   2.43600    1.000000
     48 Ti    c    0.482272 *  0.899194 *  0.417524 *   2.43600    1.000000
     49 Ti    c    0.315264 *  0.899498 *  0.418229 *   2.43600    1.000000
     50 Ti    c    0.148602 *  0.566058 *  0.417270 *   2.43600    1.000000
     51 Ti    c    0.982032 *  0.566022 *  0.417393 *   2.43600    1.000000
     52 Ti    c    0.815656 *  0.566200 *  0.417275 *   2.43600    1.000000
     53 Ti    c    0.648492 *  0.565740 *  0.418180 *   2.43600    1.000000
     54 Ti    c    0.482598 *  0.565705 *  0.418135 *   2.43600    1.000000
     55 Ti    c    0.400477 *  0.732358 *  0.417863 *   2.43600    1.000000
     56 Ti    c    0.231972 *  0.399380 *  0.418564 *   2.43600    1.000000
     57 Ti    c    0.065501 *  0.399227 *  0.418598 *   2.43600    1.000000
     58 Ti    c    0.899035 *  0.399443 *  0.418599 *   2.43600    1.000000
     59 Ti    c    0.733031 *  0.399022 *  0.418125 *   2.43600    1.000000
     60 Ti    c    0.565395 *  0.399031 *  0.418146 *   2.43600    1.000000
     61 Ti    c    0.398083 *  0.398831 *  0.418196 *   2.43600    1.000000
[...]
    668 H915  c    0.773381 *  0.683949 *  0.570935 *   0.11250    1.000000
    669 H915  c    0.491507 *  0.173597 *  0.572274 *   0.11250    1.000000
    670 H915  c    0.899665 *  0.578565 *  0.605507 *   0.11250    1.000000
    671 H915  c    0.774231 *  0.176402 *  0.570251 *   0.11250    1.000000
    672 H915  c    0.493855 *  0.687790 *  0.574046 *   0.11250    1.000000
    673 H915  c    0.898994 *  0.281927 *  0.605035 *   0.11250    1.000000
    674 H915  c    0.360259 *  0.575731 *  0.606292 *   0.11250    1.000000
    675 Zn172 c    0.129526 *  0.845258 *  0.604961 *   2.00000    1.000000
    676 Zn172 c    0.039058 *  0.930115 *  0.578160 *   2.00000    1.000000
    677 Zn172 c    0.227226 *  0.929454 *  0.579341 *   2.00000    1.000000
    678 Zn172 c    0.130089 *  0.015808 *  0.604717 *   2.00000    1.000000
    679 Zn172 c    0.725956 *  0.429402 *  0.599859 *   2.00000    1.000000
    680 Zn172 c    0.629993 *  0.516016 *  0.574447 *   2.00000    1.000000
    681 Zn172 c    0.537876 *  0.428994 *  0.600366 *   2.00000    1.000000
    682 Zn172 c    0.630438 *  0.345587 *  0.573517 *   2.00000    1.000000

  Molecule list generated from bond lengths :

  Total number of molecules =    10

Molecule No./:  Atoms
Periodicity  :
     1  0    : O3   c   181 H22  c   182
     2  0    : O3   c   187 H22  c   188
     3  0    : O176 c   543 O176 c   545 O170 c   548 O170 c   550 C912 c   579
             : C912 c   581 C912 c   584 C912 c   586 C916 c   587 C913 c   590
             : C902 c   591 C902 c   594 H915 c   643 H915 c   645 H915 c   648
             : H915 c   650
     4  0    : O170 c   544 O170 c   546 O176 c   547 O176 c   549 C912 c   580
             : C912 c   582 C912 c   583 C912 c   585 C913 c   588 C916 c   589
             : C902 c   592 C902 c   593 H915 c   644 H915 c   646 H915 c   647
             : H915 c   649
     5  0    : O170 c   553 O170 c   555 O170 c   576 O170 c   578 C912 c   595
             : C912 c   597 C912 c   616 C912 c   618 C913 c   619 C913 c   630
             : C902 c   631 C902 c   642 H915 c   651 H915 c   653 H915 c   672
             : H915 c   674
     6  0    : O170 c   554 O170 c   556 O170 c   575 O170 c   577 C912 c   596
             : C912 c   598 C912 c   615 C912 c   617 C913 c   620 C913 c   629
             : C902 c   632 C902 c   641 H915 c   652 H915 c   654 H915 c   671
             : H915 c   673
     7  0    : O170 c   557 O170 c   559 O170 c   571 O170 c   573 C912 c   599
             : C912 c   601 C912 c   611 C912 c   613 C913 c   621 C913 c   627
             : C902 c   633 C902 c   639 H915 c   655 H915 c   657 H915 c   667
             : H915 c   669
     8  0    : O170 c   558 O170 c   560 O170 c   572 O170 c   574 C912 c   600
             : C912 c   602 C912 c   612 C912 c   614 C913 c   622 C913 c   628
             : C902 c   634 C902 c   640 H915 c   656 H915 c   658 H915 c   668
             : H915 c   670
     9  0    : O170 c   561 O170 c   563 O172 c   567 H21  c   568 O173 c   570
             : C912 c   603 C912 c   605 C912 c   608 C912 c   610 C913 c   623
             : C914 c   626 C902 c   635 C902 c   638 H915 c   659 H915 c   661
             : H915 c   664 H915 c   666
    10  0    : O173 c   562 O172 c   564 H21  c   565 O170 c   566 O170 c   569
             : C912 c   604 C912 c   606 C912 c   607 C912 c   609 C914 c   624
             : C913 c   625 C902 c   636 C902 c   637 H915 c   660 H915 c   662
             : H915 c   663 H915 c   665

*  General input information                                                   *

  Species output for all configurations :

  Species    Type    Atomic    Atomic    Charge       Radii (Angs)     Library
                     Number     Mass       (e)     Cova   Ionic  VDW   Symbol
    C913     Core        6      12.01   1.070500   0.770  0.000  1.530
    O170     Core        8      16.00  -1.080000   0.730  0.000  1.360
    O172     Core        8      16.00  -0.690000   0.730  0.000  1.360
    O173     Core        8      16.00  -0.690000   0.730  0.000  1.360
    C914     Core        6      12.01   1.070500   0.770  0.000  1.530
    O175     Core        8      16.00  -1.080000   0.730  0.000  1.360
    C915     Core        6      12.01   1.070500   0.770  0.000  1.530
    C917     Core        6      12.01   1.070500   0.770  0.000  1.530
    O177     Core        8      16.00  -1.080000   0.730  0.000  1.360
    O176     Core        8      16.00  -1.080000   0.730  0.000  1.360
    C916     Core        6      12.01   1.070500   0.770  0.000  1.530
    C902     Core        6      12.01   0.005000   0.770  0.000  1.530
    H915     Core        1       1.01   0.112500   0.370  0.000  1.080
    C912     Core        6      12.01  -0.070250   0.770  0.000  1.530
    H21      Core        1       1.01   0.220000   0.370  0.000  1.080
    H22      Core        1       1.01   0.120000   0.370  0.000  1.080
    O2       Core        8      16.00  -1.218000   0.730  0.000  1.360
    Ti       Core       22      47.88   2.436000   0.000  0.000  2.190
    O3       Core        8      16.00  -0.338000   0.730  0.000  1.360
    Zn172    Core       30      65.39   2.000000   0.000  0.000  2.160
    O171     Core        8      16.00  -2.000000   0.730  0.000  1.360

  Lattice summation method               =    Ewald          (3-D)
                                         =    Parry          (2-D)
                                         =    Saunders et al (1-D)
[...]
  105.25  106.06  106.21  106.33  106.87  107.34  108.14  108.26  109.23
  109.65  110.05  110.86  111.47  112.12  112.19  112.92  113.99  115.34
  115.45  116.01  116.49  116.88  117.23  118.03  118.83  119.40  119.59
  120.10  120.61  121.64  122.74  123.28  123.36  123.42  123.85  124.58
  125.22  125.46  125.74  125.74  126.23  126.37  126.66  127.09  127.19
  127.24  127.36  127.50  127.81  127.98  128.41  129.29  130.34  131.41
  131.72  133.05  134.40  134.63  135.80  135.91  137.07  137.32  137.43
  137.52  137.57  138.57  138.78  139.63  139.67  140.19  140.29  140.63
  140.80  141.20  141.34  141.61  141.85  142.21  142.64  143.06  143.98
  144.40  144.51  144.62  145.13  145.83  146.14  146.66  146.72  147.27
  147.58  148.11  148.21  148.45  148.71  149.60  149.87  150.12  150.32
  150.55  151.04  151.25  151.33  151.57  151.95  152.25  152.57  152.68
  152.90  153.10  153.22  153.99  154.15  154.48  154.77  155.23  155.30
  156.39  156.47  156.63  157.22  157.45  157.67  157.97  158.51  158.84
  159.24  159.57  160.77  161.84  162.54  162.87  163.45  163.52  163.85
  164.59  164.66  165.24  165.54  165.99  166.23  166.55  167.09  167.35
  167.56  167.62  167.75  167.88  168.30  168.41  168.67  168.96  169.72
  169.99  170.42  170.88  171.78  172.11  172.18  172.21  172.38  172.74
  172.95  173.49  173.68  173.99  174.20  174.86  175.13  175.51  176.08
  176.18  176.57  176.70  176.98  177.15  177.40  178.03  178.27  178.70
  178.89  179.21  179.56  179.75  180.18  180.31  181.06  181.37  181.51
  181.85  182.36  182.54  182.65  182.69  182.82  183.02  183.30  183.82
  183.92  184.38  184.83  185.41  185.64  185.74  186.06  186.88  187.10
  188.00  188.57  189.01  189.24  189.32  189.64  189.95  190.37  190.64
  190.75  191.13  191.53  191.80  192.16  192.56  192.66  192.86  193.70
  193.75  194.01  194.09  194.36  194.75  195.04  195.19  195.29  195.64
  196.32  196.73  197.27  197.61  197.76  198.38  198.91  199.13  199.96
  200.63  202.10  202.84  203.02  203.58  203.64  203.99  204.14  204.92
  205.08  205.35  205.67  205.80  205.99  206.24  206.46  206.87  207.12
  207.86  208.02  208.46  209.29  209.35  209.83  210.43  210.94  211.30
  211.67  212.01  212.47  212.66  213.14  213.29  213.55  213.73  214.13
  214.38  214.49  214.57  214.75  214.79  214.86  215.19  215.38  215.40
  215.59  215.68  215.98  216.13  216.16  216.35  216.58  216.70  216.99
  217.19  217.37  217.93  218.26  218.32  218.40  218.80  219.12  219.47
  219.89  220.24  220.65  220.73  221.15  221.27  221.48  221.59  221.81
  222.08  222.19  222.76  222.85  222.93  223.93  224.69  225.08  225.60
  225.77  226.04  226.13  226.52  226.69  227.00  227.27  227.48  227.94
  228.18  228.46  228.58  229.02  229.04  229.39  229.51  229.90  230.11
  230.29  230.52  230.85  231.07  231.20  231.50  232.04  232.23  232.54
  233.05  233.19  233.45  233.47  233.85  234.13  234.38  234.80  235.01
  235.39  235.85  236.17  236.35  236.69  236.88  236.96  237.22  237.71
  237.88  237.95  237.98  238.08  238.62  239.65  239.73  240.11  240.55
  241.20  241.42  241.84  242.30  242.84  242.92  243.57  243.80  244.55
  245.47  245.92  246.02  246.70  246.76  247.32  247.66  247.98  248.10
  248.37  248.79  249.40  249.61  250.03  250.36  250.71  250.82  251.52
  251.70  252.08  252.31  252.54  252.93  253.07  253.59  253.81  254.25
  254.90  255.15  255.76  256.01  256.53  257.06  257.44  257.52  257.72
  257.97  258.05  258.30  258.70  258.95  259.30  259.73  259.93  260.84
  261.31  262.98  263.12  263.43  263.96  264.08  264.30  264.56  264.88
  265.09  265.36  265.55  266.12  266.31  266.67  268.16  268.34  268.57
  269.13  269.58  270.82  271.18  271.72  272.33  272.36  273.02  273.25
[...]
 1155.18 1155.55 1155.73 1155.74 1156.05 1171.41 1176.64 1176.99 1177.08
 1182.86 1184.58 1185.28 1186.47 1188.66 1189.23 1189.47 1192.48 1196.02
 1197.94 1198.56 1199.96 1211.71 1211.98 1212.09 1212.42 1213.33 1213.60
 1216.82 1216.86 1297.79 1299.29 1300.66 1300.76 1301.47 1302.55 1303.34
 1309.75 1336.72 1337.56 1338.64 1341.76 1342.04 1342.38 1344.68 1351.44
 1393.87 1394.14 1394.18 1394.43 1395.63 1397.04 1397.96 1397.98 1410.04
 1410.69 1412.87 1414.14 1414.27 1414.39 1415.41 1419.16 1421.92 1422.04
 1422.16 1422.23 1422.51 1422.58 1423.05 1423.06 1489.05 1489.06 1489.87
 1490.11 1491.12 1491.41 1491.49 1492.14 1609.83 1611.07 1611.77 1612.37
 1612.58 1613.09 1622.88 1624.64 1625.24 1625.74 1625.86 1626.21 1626.40
 1629.72 1665.95 1665.98 2943.46 2943.52 2943.53 2943.86 2943.89 2943.93
 2943.94 2943.96 2943.99 2944.06 2944.15 2944.17 2944.18 2944.24 2944.26
 2944.29 2944.37 2944.39 2944.46 2944.51 2944.52 2944.58 2944.79 2945.05
 2945.28 2945.32 2945.37 2945.40 2945.55 2945.59 2945.64 2946.21 3684.25
 3684.41 3685.47 3688.95

  Phonon properties (per mole of unit cells): Temperature =      0.000 K
  Zero point energy            =       65.083839 eV

  Phonon density of states :

 Frequency (cm-1) Density of States
    0.00000 |********                                                      0.015
   57.63983 |********************                                          0.033
  115.27965 |*******************************************                   0.071
  172.91948 |******************************************************        0.089
  230.55930 |*********************************************                 0.075
  288.19913 |************************************************************  0.098
  345.83895 |**********************************************                0.077
  403.47878 |*********************************************************     0.094
  461.11860 |*****************************************************         0.087
  518.75843 |*************************************                         0.062
  576.39825 |*************************************                         0.062
  634.03808 |********************************                              0.053
  691.67790 |*******************************                               0.052
  749.31773 |*****************                                             0.028
  806.95755 |******                                                        0.011
  864.59738 |****                                                          0.007
  922.23720 |*******                                                       0.012
  979.87703 |****                                                          0.008
 1037.51685 |                                                              0.000
 1095.15668 |                                                              0.001
 1152.79651 |*******                                                       0.012
 1210.43633 |**                                                            0.004
 1268.07616 |**                                                            0.004
 1325.71598 |**                                                            0.004
 1383.35581 |*******                                                       0.012
 1440.99563 |**                                                            0.004
 1498.63546 |                                                              0.000
 1556.27528 |*                                                             0.003
 1613.91511 |**                                                            0.005
 1671.55493 |                                                              0.000
 1729.19476 |                                                              0.000
 1786.83458 |                                                              0.000
 1844.47441 |                                                              0.000
 1902.11423 |                                                              0.000
 1959.75406 |                                                              0.000
 2017.39388 |                                                              0.000
 2075.03371 |                                                              0.000
 2132.67353 |                                                              0.000
 2190.31336 |                                                              0.000
 2247.95319 |                                                              0.000
 2305.59301 |                                                              0.000
 2363.23284 |                                                              0.000
 2420.87266 |                                                              0.000
 2478.51249 |                                                              0.000
 2536.15231 |                                                              0.000
 2593.79214 |                                                              0.000
 2651.43196 |                                                              0.000
 2709.07179 |                                                              0.000
 2766.71161 |                                                              0.000
 2824.35144 |                                                              0.000
 2881.99126 |                                                              0.000
 2939.63109 |*********                                                     0.016
 2997.27091 |                                                              0.000
 3054.91074 |                                                              0.000
 3112.55056 |                                                              0.000
 3170.19039 |                                                              0.000
 3227.83021 |                                                              0.000
 3285.47004 |                                                              0.000
 3343.10987 |                                                              0.000
 3400.74969 |                                                              0.000
 3458.38952 |                                                              0.000
 3516.02934 |                                                              0.000
 3573.66917 |                                                              0.000
 3631.30899 |*                                                             0.002

  Time to end of optimisation =     445.4257 seconds

  Electrostatic potential at atomic positions :

 Site  Atomic      Potential                Derivatives (V/Angs)
 No.   Label          (V)                 x           y           z
     1 Ti    c    -23.300352           1.945396   -0.090020   -0.089171
     2 Ti    c    -24.851360           0.113914   -0.012993   -1.638870
     3 Ti    c    -24.891745          -0.070542   -0.020461   -1.631479
     4 Ti    c    -24.602037          -0.333159   -0.023719   -1.414959
     5 Ti    c    -23.722889          -1.283317   -0.279679   -0.485387
     6 Ti    c    -23.668392           1.247217   -0.285644   -0.475575
     7 Ti    c    -24.517214           0.330240    0.043071   -1.432997
     8 Ti    c    -25.464699           0.064394    0.140700   -1.638054
     9 Ti    c    -25.310318          -0.159404   -0.015069   -1.643220
    10 Ti    c    -25.036731          -0.151062   -0.028492   -1.652692
    11 Ti    c    -24.877563          -0.077354   -0.048343   -1.647847
    12 Ti    c    -24.855596           0.092156   -0.119415   -1.629382
    13 Ti    c    -25.134929           0.235473    0.003618   -1.619044
    14 Ti    c    -24.986999           0.492814   -0.176528   -1.363763
    15 Ti    c    -25.186623          -0.043805    0.033261   -1.615911
    16 Ti    c    -24.944523          -0.226209    0.043266   -1.624160
    17 Ti    c    -24.452357          -0.501626    0.015694   -1.411520
    18 Ti    c    -23.002359          -1.794169    0.034344   -0.063566
    19 Ti    c    -22.925670          -0.023802    0.200631    1.556154
    20 Ti    c    -22.826055          -0.171960    0.189070    1.508869
    21 Ti    c    -22.648820          -0.193266    0.295338    1.564890
    22 Ti    c    -23.221120          -0.386212   -0.051267    1.570206
    23 Ti    c    -22.444354          -0.247193   -0.339140    1.536941
    24 Ti    c    -22.784849           0.395885   -0.226456    1.572836
    25 Ti    c    -22.821381          -0.132627   -0.112867    1.502396
    26 Ti    c    -23.312195          -0.295989    0.622729   -0.228435
    27 Ti    c    -22.572000          -0.066841    0.173929    1.704531
    28 Ti    c    -22.827170           0.190869    0.214649    1.532244
    29 Ti    c    -22.893105          -0.025054    0.195294    0.954086
    30 Ti    c    -22.648869           0.218704    0.342164    1.542523
    31 Ti    c    -24.254722           0.810277   -0.370149   -0.502942
    32 Ti    c    -24.556873          -0.381036   -0.104113   -0.547725
    33 Ti    c    -22.730768          -0.217579   -0.090080    1.514264
    34 Ti    c    -22.490106           0.438430    0.194824    1.550056
    35 Ti    c    -22.807643           0.066315   -0.066963    1.552528
    36 Ti    c    -22.839081           0.000490    0.043364    1.678258
    37 Ti    c    -23.441140          -0.034759    0.032609    0.014511
    38 Ti    c    -23.610480           0.050083    0.042012    0.153310
    39 Ti    c    -23.625329          -0.049730    0.041563    0.140841
    40 Ti    c    -23.564234          -0.068833   -0.015420    0.128875
    41 Ti    c    -23.451775          -0.053774    0.031376    0.149894
    42 Ti    c    -23.452232           0.042410    0.033676    0.145792
    43 Ti    c    -23.558115           0.078884    0.014117    0.127415
    44 Ti    c    -23.811563           0.152059    0.019910    0.079915
    45 Ti    c    -23.902902          -0.214282   -0.004050   -0.068103
    46 Ti    c    -23.675197          -0.208714   -0.002219    0.046953
    47 Ti    c    -23.481310          -0.120973    0.022510    0.155506
    48 Ti    c    -23.444305           0.118045   -0.105262    0.041168
    49 Ti    c    -23.671131           0.290781   -0.101904   -0.068484
    50 Ti    c    -23.519613           0.124829   -0.057781    0.182586
    51 Ti    c    -23.588893          -0.002042   -0.033030    0.145507
    52 Ti    c    -23.602722           0.041509   -0.025929    0.023012
    53 Ti    c    -23.441519          -0.148766   -0.111603    0.148027
    54 Ti    c    -23.337298           0.014074    0.016388    0.119409
    55 Ti    c    -23.289652           0.089265   -0.030610    0.563521
    56 Ti    c    -23.788507           0.070304    0.042226   -0.139524
    57 Ti    c    -23.848804           0.029434    0.029950   -0.197180
    58 Ti    c    -23.837549          -0.044357    0.025464   -0.149262
    59 Ti    c    -23.723623          -0.162826    0.058082   -0.147593
    60 Ti    c    -23.514291          -0.021018    0.057265    0.161423
[...]
   668 H915  c     -2.023797          -0.138056    0.443332   -0.364631
   669 H915  c     -2.010445           0.140444   -0.434863   -0.349471
   670 H915  c     -1.966319           0.375334   -0.129167    0.373309
   671 H915  c     -2.022168          -0.146739   -0.412640   -0.353720
   672 H915  c     -1.994771           0.119476    0.483563   -0.370770
   673 H915  c     -1.993117           0.392174    0.107522    0.388075
   674 H915  c     -1.946838          -0.383157   -0.144709    0.342080
   675 Zn172 c    -21.009707           0.016241   -0.335473    0.091202
   676 Zn172 c    -20.862135          -0.481354    0.035185    0.159828
   677 Zn172 c    -20.940405           0.469708    0.024592    0.201502
   678 Zn172 c    -21.001080           0.020228    0.367097    0.100911
   679 Zn172 c    -20.821655           0.484017    0.028574   -0.111559
   680 Zn172 c    -20.993397           0.107855    0.436860   -0.077381
   681 Zn172 c    -20.811607          -0.431520    0.041388   -0.146622
   682 Zn172 c    -20.834743           0.072488   -0.213376   -0.208648

  Total time to end of lattice properties =     462.9257 s

  Timing analysis for GULP :

  Task / Subroutine                                          Time (Seconds)
  Calculation of reciprocal space energy and derivatives        116.4833
  Calculation of real space energy and derivatives              296.8347
  Calculation of three-body energy and derivatives                0.5742
  Calculation of four-body energy and derivatives                 0.6152
  Calculation of molecules and connectivity                       0.1425
  Calculation of phonons                                         20.9728
  Calculation of scattering                                       0.0000
  Calculation of matrix inversion                                30.9499
  Symmetry generation of equivalent positions                     0.0066
  Global summation overhead                                       0.0014

  Dump file written as fit1.res

  Job Finished at 19:10.05 17th May        2016