  Job Started  at 16:01.11 27th May        2016

  Number of CPUs =     1

  Total number of configurations input =   1

*  Input for Configuration =   1                                               *

  Formula = Ti180H84O446C160Zn24

  Number of irreducible atoms/shells =     894

  Total number atoms/shells =     894

  Dimensionality = 3               :  Bulk

  Cartesian lattice vectors (Angstroms) :

       17.724000    0.000000    0.000000
        0.000000   19.461000    0.000000
        0.000000    0.000000  114.868000

  Cell parameters (Angstroms/Degrees):

  a =      17.7240    alpha =  90.0000
  b =      19.4610    beta  =  90.0000
  c =     114.8680    gamma =  90.0000

  Initial cell volume =       39621.047527 Angs**3

  Temperature of configuration =  0.000     K

  Pressure of configuration =         0.000 GPa

  Fractional coordinates of asymmetric unit :

   No.  Atomic       x           y          z         Charge      Occupancy
        Label      (Frac)      (Frac)     (Frac)        (e)         (Frac)
      1 Ti    c    0.320000    0.733333    0.339270     2.43600    1.000000
      2 Ti    c    0.147672 *  0.399540 *  0.341542 *   2.43600    1.000000
      3 Ti    c    0.982367 *  0.400624 *  0.340511 *   2.43600    1.000000
      4 Ti    c    0.813448 *  0.399042 *  0.339744 *   2.43600    1.000000
      5 Ti    c    0.649008 *  0.399980 *  0.341521 *   2.43600    1.000000
      6 Ti    c    0.482054 *  0.399846 *  0.341430 *   2.43600    1.000000
      7 Ti    c    0.315052 *  0.399358 *  0.341414 *   2.43600    1.000000
      8 Ti    c    0.148404 *  0.065937 *  0.340882 *   2.43600    1.000000
      9 Ti    c    0.982290 *  0.065662 *  0.341348 *   2.43600    1.000000
     10 Ti    c    0.815422 *  0.065912 *  0.341342 *   2.43600    1.000000
     11 Ti    c    0.648720 *  0.066085 *  0.341361 *   2.43600    1.000000
     12 Ti    c    0.481847 *  0.066375 *  0.341364 *   2.43600    1.000000
     13 Ti    c    0.315188 *  0.065941 *  0.341287 *   2.43600    1.000000
     14 Ti    c    0.143852 *  0.733600 *  0.338744 *   2.43600    1.000000
     15 Ti    c    0.981379 *  0.732606 *  0.341627 *   2.43600    1.000000
     16 Ti    c    0.815349 *  0.731996 *  0.341515 *   2.43600    1.000000
     17 Ti    c    0.648952 *  0.732924 *  0.341450 *   2.43600    1.000000
     18 Ti    c    0.482945 *  0.732730 *  0.341465 *   2.43600    1.000000
     19 Ti    c    0.064701 *  0.233346 *  0.339245 *   2.43600    1.000000
     20 Ti    c    0.898336 *  0.230503 *  0.339535 *   2.43600    1.000000
     21 Ti    c    0.732048 *  0.233156 *  0.339173 *   2.43600    1.000000
     22 Ti    c    0.899804 *  0.898486 *  0.339302 *   2.43600    1.000000
     23 Ti    c    0.565114 *  0.899445 *  0.339209 *   2.43600    1.000000
     24 Ti    c    0.398003 *  0.899666 *  0.339111 *   2.43600    1.000000
     25 Ti    c    0.898529 *  0.565513 *  0.340667 *   2.43600    1.000000
     26 Ti    c    0.565459 *  0.566177 *  0.339111 *   2.43600    1.000000
     27 Ti    c    0.398630 *  0.566723 *  0.339169 *   2.43600    1.000000
     28 Ti    c    0.231745 *  0.232017 *  0.339208 *   2.43600    1.000000
     29 Ti    c    0.565438 *  0.233237 *  0.339241 *   2.43600    1.000000
     30 Ti    c    0.398609 *  0.233038 *  0.339244 *   2.43600    1.000000
     31 Ti    c    0.231575 *  0.900915 *  0.340241 *   2.43600    1.000000
     32 Ti    c    0.066632 *  0.899784 *  0.341073 *   2.43600    1.000000
     33 Ti    c    0.732457 *  0.899253 *  0.339290 *   2.43600    1.000000
     34 Ti    c    0.231792 *  0.563995 *  0.338785 *   2.43600    1.000000
     35 Ti    c    0.065088 *  0.567804 *  0.339014 *   2.43600    1.000000
     36 Ti    c    0.731936 *  0.566563 *  0.338931 *   2.43600    1.000000
     37 Ti    c    0.315480 *  0.566071 *  0.311824 *   2.43600    1.000000
     38 Ti    c    0.148576 *  0.232777 *  0.312054 *   2.43600    1.000000
     39 Ti    c    0.981770 *  0.232595 *  0.312162 *   2.43600    1.000000
     40 Ti    c    0.815274 *  0.232583 *  0.312168 *   2.43600    1.000000
     41 Ti    c    0.648453 *  0.232769 *  0.311980 *   2.43600    1.000000
     42 Ti    c    0.481938 *  0.232966 *  0.312066 *   2.43600    1.000000
     43 Ti    c    0.315256 *  0.232954 *  0.312048 *   2.43600    1.000000
     44 Ti    c    0.148301 *  0.899600 *  0.313448 *   2.43600    1.000000
     45 Ti    c    0.982195 *  0.899294 *  0.312635 *   2.43600    1.000000
     46 Ti    c    0.815323 *  0.899217 *  0.312115 *   2.43600    1.000000
     47 Ti    c    0.648766 *  0.899415 *  0.312093 *   2.43600    1.000000
     48 Ti    c    0.482250 *  0.899650 *  0.311944 *   2.43600    1.000000
     49 Ti    c    0.315262 *  0.899732 *  0.312383 *   2.43600    1.000000
     50 Ti    c    0.148579 *  0.566253 *  0.311756 *   2.43600    1.000000
     51 Ti    c    0.981402 *  0.565880 *  0.312518 *   2.43600    1.000000
     52 Ti    c    0.815585 *  0.565799 *  0.312582 *   2.43600    1.000000
     53 Ti    c    0.648373 *  0.566301 *  0.311828 *   2.43600    1.000000
     54 Ti    c    0.481991 *  0.566086 *  0.311935 *   2.43600    1.000000
     55 Ti    c    0.400337 *  0.732749 *  0.312212 *   2.43600    1.000000
     56 Ti    c    0.232026 *  0.399489 *  0.312843 *   2.43600    1.000000
     57 Ti    c    0.065844 *  0.398969 *  0.312675 *   2.43600    1.000000
     58 Ti    c    0.898789 *  0.399159 *  0.312576 *   2.43600    1.000000
     59 Ti    c    0.730901 *  0.399093 *  0.312468 *   2.43600    1.000000
     60 Ti    c    0.564968 *  0.399532 *  0.312846 *   2.43600    1.000000
     61 Ti    c    0.398540 *  0.399332 *  0.312835 *   2.43600    1.000000
[...]
    880 O176  c    0.895090 *  0.416309 *  0.351144 *  -1.08000    1.000000
    881 O177  c    0.758872 *  0.495524 *  0.410925 *  -1.08000    1.000000
    882 O177  c    0.754100 *  0.382636 *  0.410001 *  -1.08000    1.000000
    883 C912  c    0.844580 *  0.513561 *  0.377472 *  -0.07025    1.000000
    884 C912  c    0.840524 *  0.391591 *  0.375369 *  -0.07025    1.000000
    885 C912  c    0.816239 *  0.507969 *  0.388580 *  -0.07025    1.000000
    886 C912  c    0.812905 *  0.386013 *  0.386587 *  -0.07025    1.000000
    887 C916  c    0.884172 *  0.466291 *  0.358385 *   1.07050    1.000000
    888 C917  c    0.768810 *  0.440075 *  0.405445 *   1.07050    1.000000
    889 C902  c    0.855906 *  0.455716 *  0.370752 *   0.00500    1.000000
    890 C902  c    0.800173 *  0.444276 *  0.393171 *   0.00500    1.000000
    891 H915  c    0.857110 *  0.563607 *  0.373825 *   0.11250    1.000000
    892 H915  c    0.849218 *  0.345931 *  0.370172 *   0.11250    1.000000
    893 H915  c    0.806384 *  0.553228 *  0.393852 *   0.11250    1.000000
    894 H915  c    0.800087 *  0.336211 *  0.390295 *   0.11250    1.000000

  Molecule list generated from bond lengths :

  Total number of molecules =    22

Molecule No./:  Atoms
Periodicity  :
     1  0    : H22  c   181 O3   c   196
     2  0    : H22  c   182 O3   c   186
     3  0    : O177 c   543 O177 c   544 O176 c   545 O176 c   546 C912 c   627
             : C912 c   628 C912 c   629 C912 c   630 C917 c   631 C916 c   632
             : C902 c   633 C902 c   634 H915 c   779 H915 c   780 H915 c   781
             : H915 c   782
     4  0    : O170 c   549 O170 c   551 O170 c   570 O170 c   572 C912 c   635
             : C912 c   637 C912 c   656 C912 c   658 C913 c   659 C913 c   670
             : C902 c   671 C902 c   682 H915 c   783 H915 c   785 H915 c   804
             : H915 c   806
     5  0    : O170 c   550 O170 c   552 O170 c   569 O170 c   571 C912 c   636
             : C912 c   638 C912 c   655 C912 c   657 C913 c   660 C913 c   669
             : C902 c   672 C902 c   681 H915 c   784 H915 c   786 H915 c   803
             : H915 c   805
     6  0    : O170 c   553 O170 c   555 O170 c   565 O170 c   567 C912 c   639
             : C912 c   641 C912 c   651 C912 c   653 C913 c   661 C913 c   667
             : C902 c   673 C902 c   679 H915 c   787 H915 c   789 H915 c   799
             : H915 c   801
     7  0    : O170 c   554 O170 c   556 O170 c   566 O170 c   568 C912 c   640
             : C912 c   642 C912 c   652 C912 c   654 C913 c   662 C913 c   668
             : C902 c   674 C902 c   680 H915 c   788 H915 c   790 H915 c   800
             : H915 c   802
     8  0    : O170 c   557 O170 c   559 O170 c   562 O170 c   564 C912 c   643
             : C912 c   645 C912 c   648 C912 c   650 C913 c   663 C913 c   666
             : C902 c   675 C902 c   678 H915 c   791 H915 c   793 H915 c   796
             : H915 c   798
     9  0    : O170 c   558 O170 c   560 O170 c   561 O170 c   563 C912 c   644
             : C912 c   646 C912 c   647 C912 c   649 C913 c   664 C913 c   665
             : C902 c   676 C902 c   677 H915 c   792 H915 c   794 H915 c   795
             : H915 c   797
    10  0    : O170 c   575 O170 c   577 O170 c   596 O170 c   598 C912 c   683
             : C912 c   685 C912 c   704 C912 c   706 C913 c   707 C913 c   718
             : C902 c   719 C902 c   730 H915 c   807 H915 c   809 H915 c   828
             : H915 c   830
    11  0    : O170 c   576 O170 c   578 O170 c   595 O170 c   597 C912 c   684
             : C912 c   686 C912 c   703 C912 c   705 C913 c   708 C913 c   717
             : C902 c   720 C902 c   729 H915 c   808 H915 c   810 H915 c   827
             : H915 c   829
    12  0    : O170 c   579 O170 c   581 O170 c   591 O170 c   593 C912 c   687
             : C912 c   689 C912 c   699 C912 c   701 C913 c   709 C913 c   715
             : C902 c   721 C902 c   727 H915 c   811 H915 c   813 H915 c   823
             : H915 c   825
    13  0    : O170 c   580 O170 c   582 O170 c   592 O170 c   594 C912 c   688
             : C912 c   690 C912 c   700 C912 c   702 C913 c   710 C913 c   716
             : C902 c   722 C902 c   728 H915 c   812 H915 c   814 H915 c   824
             : H915 c   826
    14  0    : O170 c   583 O170 c   585 O170 c   588 O170 c   590 C912 c   691
             : C912 c   693 C912 c   696 C912 c   698 C913 c   711 C913 c   714
             : C902 c   723 C902 c   726 H915 c   815 H915 c   817 H915 c   820
             : H915 c   822
    15  0    : O170 c   584 O170 c   586 O170 c   587 O170 c   589 C912 c   692
             : C912 c   694 C912 c   695 C912 c   697 C913 c   712 C913 c   713
             : C902 c   724 C902 c   725 H915 c   816 H915 c   818 H915 c   819
             : H915 c   821
    16  0    : O170 c   601 O170 c   603 O170 c   624 O170 c   626 C912 c   731
             : C912 c   733 C912 c   752 C912 c   754 C913 c   755 C913 c   766
             : C902 c   767 C902 c   778 H915 c   831 H915 c   833 H915 c   852
             : H915 c   854
    17  0    : O170 c   602 O170 c   604 O170 c   623 O170 c   625 C912 c   732
             : C912 c   734 C912 c   751 C912 c   753 C913 c   756 C913 c   765
             : C902 c   768 C902 c   777 H915 c   832 H915 c   834 H915 c   851
             : H915 c   853
    18  0    : O170 c   605 O170 c   607 O170 c   619 O170 c   621 C912 c   735
[...]
   78.69   78.99   79.88   79.96   80.17   81.45   81.85   82.24   82.54
   82.93   83.17   83.92   84.05   84.22   84.90   86.43   87.19   89.25
   89.55   90.63   90.70   90.91   91.18   91.83   92.11   92.78   93.12
   93.23   94.54   95.24   95.62   96.03   96.64   96.81   97.04   97.60
   97.74   98.14   98.36   98.49   99.25   99.73  100.03  100.43  100.86
  101.25  102.19  102.87  103.05  103.60  103.82  104.01  104.42  104.91
  105.72  106.25  106.28  106.36  106.53  107.10  107.16  107.86  108.04
  108.35  108.62  109.15  109.59  110.07  110.25  110.52  110.69  111.16
  111.52  111.82  111.90  113.29  113.41  113.66  114.12  114.45  114.64
  114.76  115.53  115.82  116.09  116.89  118.06  118.53  118.96  119.09
  119.28  119.63  120.51  120.82  120.84  121.52  121.88  122.47  123.16
  123.30  123.46  123.49  124.11  124.73  124.89  125.39  125.56  125.74
  125.79  125.85  125.99  126.37  126.51  126.59  126.68  126.97  127.15
  127.33  127.44  127.66  127.76  127.97  128.16  128.53  129.51  130.35
  130.74  131.50  131.70  132.16  132.43  134.06  134.19  134.54  135.24
  135.41  135.92  136.06  136.28  137.30  137.39  137.46  137.78  138.50
  138.64  139.12  139.80  139.88  140.11  140.31  140.54  140.56  141.06
  141.20  141.59  141.64  142.13  142.54  142.83  143.06  143.22  143.69
  144.43  144.62  145.09  145.32  145.62  145.97  146.07  146.32  146.52
  146.85  147.22  147.29  147.36  147.54  147.80  148.52  148.61  149.08
  149.39  149.72  149.80  149.96  150.56  150.94  151.16  151.25  151.31
  151.38  151.78  151.89  152.02  152.24  152.72  152.89  153.13  153.29
  153.34  153.53  153.66  153.83  154.08  154.38  154.60  155.09  155.39
  155.48  155.84  156.27  156.34  156.61  156.84  156.98  157.38  157.68
  158.22  158.58  158.92  159.07  159.54  160.23  160.49  161.92  162.56
  163.11  163.38  163.53  163.99  164.18  164.98  165.04  165.48  165.86
  166.06  166.45  166.82  166.95  167.33  167.49  167.58  167.69  167.76
  167.87  168.00  168.34  168.49  168.74  169.10  169.51  169.86  170.72
  171.26  171.66  171.90  172.09  172.19  172.21  172.34  172.47  173.06
  173.27  173.41  173.75  174.25  174.57  174.63  175.18  175.27  175.43
  176.07  176.19  176.52  176.60  176.68  176.95  177.13  177.21  177.88
  178.10  178.30  178.40  179.15  179.25  179.38  179.75  180.01  180.13
  180.21  180.56  180.87  181.12  181.63  181.73  181.99  182.17  182.50
  182.67  182.77  182.97  183.33  183.80  183.98  184.23  184.62  185.08
  185.56  185.79  185.83  185.91  186.54  187.00  187.63  187.81  187.81
  188.10  188.94  189.30  189.39  189.46  189.71  189.93  190.16  190.34
  190.61  190.87  191.03  191.51  191.83  191.91  191.98  192.53  192.60
  192.63  193.28  193.32  193.86  194.08  194.29  194.47  194.58  194.76
  194.86  194.98  195.32  195.66  195.81  196.14  196.20  196.58  197.10
  197.36  197.47  198.31  198.57  198.80  198.94  199.15  199.16  199.96
  200.33  200.80  201.76  202.34  202.92  203.58  203.65  203.89  204.23
  204.65  204.99  205.11  205.34  205.62  205.82  205.95  206.03  206.27
  206.58  207.07  207.50  207.75  208.10  208.56  209.46  209.56  209.92
  210.01  210.67  211.19  211.37  211.63  211.96  212.41  212.60  212.69
  213.08  213.13  213.74  214.16  214.37  214.46  214.56  214.72  214.78
  215.07  215.29  215.48  215.55  215.66  215.84  215.94  216.00  216.09
  216.16  216.37  216.73  216.84  216.96  217.09  217.17  217.57  217.60
  217.97  218.33  218.37  218.40  218.57  218.84  219.37  219.65  219.79
  220.12  220.39  220.63  221.07  221.24  221.33  221.53  221.88  222.13
  222.33  222.54  222.80  223.43  223.74  223.97  224.41  224.54  224.91
[...]
 1491.05 1491.26 1491.26 1491.32 1491.34 1491.39 1491.47 1491.82 1491.97
 1492.06 1492.41 1609.70 1609.98 1610.04 1611.02 1611.22 1611.29 1611.41
 1611.71 1611.91 1612.01 1612.11 1612.36 1612.49 1612.59 1612.75 1612.84
 1613.05 1613.20 1622.60 1622.95 1623.23 1624.42 1624.46 1624.71 1624.89
 1625.29 1625.30 1625.57 1625.68 1625.75 1625.88 1625.91 1626.14 1626.42
 1626.69 1627.17 1627.27 1627.91 1665.93 1665.98 2943.41 2943.52 2943.52
 2943.77 2943.80 2943.84 2943.86 2943.87 2943.87 2943.88 2943.89 2943.90
 2943.91 2943.91 2943.92 2943.93 2943.94 2943.96 2943.97 2943.98 2943.99
 2944.01 2944.05 2944.06 2944.07 2944.08 2944.14 2944.15 2944.17 2944.19
 2944.20 2944.20 2944.21 2944.23 2944.23 2944.29 2944.31 2944.32 2944.32
 2944.33 2944.34 2944.37 2944.38 2944.41 2944.44 2944.45 2944.45 2944.47
 2944.48 2944.49 2944.52 2944.55 2944.59 2944.60 2944.64 2944.64 2944.69
 2944.77 2944.79 2945.25 2945.28 2945.30 2945.31 2945.34 2945.35 2945.38
 2945.38 2945.39 2945.41 2945.42 2945.48 2945.48 2945.50 2945.54 2945.55
 2945.59 2945.66 2945.82 2945.94 2946.97 3684.25 3684.41 3685.51 3689.93

  Phonon properties (per mole of unit cells): Temperature =      0.000 K
  Zero point energy            =       99.160829 eV

  Phonon density of states :

 Frequency (cm-1) Density of States
    0.00000 |****************                                              0.023
   57.65515 |*****************************                                 0.041
  115.31029 |***********************************************               0.066
  172.96544 |*********************************************************     0.079
  230.62059 |*************************************************             0.069
  288.27574 |************************************************************  0.083
  345.93088 |*********************************************                 0.063
  403.58603 |**********************************************************    0.081
  461.24118 |*********************************************************     0.080
  518.89633 |************************************                          0.051
  576.55147 |*************************************                         0.052
  634.20662 |*******************************                               0.044
  691.86177 |************************************                          0.050
  749.51692 |****************                                              0.023
  807.17206 |**************                                                0.020
  864.82721 |**********                                                    0.014
  922.48236 |****************                                              0.022
  980.13750 |**********                                                    0.015
 1037.79265 |                                                              0.000
 1095.44780 |                                                              0.001
 1153.10295 |****************                                              0.022
 1210.75809 |*****                                                         0.007
 1268.41324 |*****                                                         0.007
 1326.06839 |*****                                                         0.007
 1383.72354 |****************                                              0.022
 1441.37868 |*****                                                         0.007
 1499.03383 |                                                              0.000
 1556.68898 |****                                                          0.007
 1614.34412 |*****                                                         0.008
 1671.99927 |                                                              0.000
 1729.65442 |                                                              0.000
 1787.30957 |                                                              0.000
 1844.96471 |                                                              0.000
 1902.61986 |                                                              0.000
 1960.27501 |                                                              0.000
 2017.93016 |                                                              0.000
 2075.58530 |                                                              0.000
 2133.24045 |                                                              0.000
 2190.89560 |                                                              0.000
 2248.55075 |                                                              0.000
 2306.20589 |                                                              0.000
 2363.86104 |                                                              0.000
 2421.51619 |                                                              0.000
 2479.17133 |                                                              0.000
 2536.82648 |                                                              0.000
 2594.48163 |                                                              0.000
 2652.13678 |                                                              0.000
 2709.79192 |                                                              0.000
 2767.44707 |                                                              0.000
 2825.10222 |                                                              0.000
 2882.75737 |                                                              0.000
 2940.41251 |*********************                                         0.030
 2998.06766 |                                                              0.000
 3055.72281 |                                                              0.000
 3113.37795 |                                                              0.000
 3171.03310 |                                                              0.000
 3228.68825 |                                                              0.000
 3286.34340 |                                                              0.000
 3343.99854 |                                                              0.000
 3401.65369 |                                                              0.000
 3459.30884 |                                                              0.000
 3516.96399 |                                                              0.000
 3574.61913 |                                                              0.000
 3632.27428 |*                                                             0.001

  Time to end of optimisation =    3157.6283 seconds

  Electrostatic potential at atomic positions :

 Site  Atomic      Potential                Derivatives (V/Angs)
 No.   Label          (V)                 x           y           z
     1 Ti    c    -23.063679          -1.717013   -0.201781   -0.038034
     2 Ti    c    -24.413683          -0.136666    0.041191   -1.463464
     3 Ti    c    -23.678780          -1.320837   -0.287047   -0.459718
     4 Ti    c    -23.673726           1.183469   -0.306804   -0.505820
     5 Ti    c    -24.397637           0.251371   -0.037153   -1.399842
     6 Ti    c    -24.585039           0.025378    0.002221   -1.612468
     7 Ti    c    -24.547412          -0.049026   -0.000863   -1.618631
     8 Ti    c    -25.224197           0.063939    0.214061   -1.629241
     9 Ti    c    -25.100584          -0.137852   -0.053656   -1.631230
    10 Ti    c    -24.905290          -0.089450   -0.120683   -1.643232
    11 Ti    c    -24.802575          -0.039405    0.032995   -1.657348
    12 Ti    c    -24.812031           0.059666   -0.044374   -1.647566
    13 Ti    c    -24.987769           0.135236    0.008475   -1.618446
    14 Ti    c    -23.424969           1.800970   -0.462730   -0.138929
    15 Ti    c    -24.684543           0.380015    0.008184   -1.385462
    16 Ti    c    -24.876217          -0.046276    0.048355   -1.637400
    17 Ti    c    -24.707928          -0.181416   -0.021966   -1.628067
    18 Ti    c    -24.295234          -0.417901    0.064102   -1.403873
    19 Ti    c    -22.629851          -0.063601    0.408879    1.574199
    20 Ti    c    -22.945480          -0.076440    0.251047    0.952685
    21 Ti    c    -22.539765           0.008307    0.300694    1.574420
    22 Ti    c    -23.016441          -0.269682   -0.082562    1.537352
    23 Ti    c    -22.583019          -0.086210   -0.115390    1.509546
    24 Ti    c    -22.698436           0.120356   -0.294916    1.641625
    25 Ti    c    -23.602935           0.028814    0.280663   -0.260454
    26 Ti    c    -22.465069          -0.099449    0.002015    1.495140
    27 Ti    c    -22.199982          -0.234458    0.274739    1.558311
    28 Ti    c    -22.649415           0.059139    0.201202    1.517957
    29 Ti    c    -22.537275           0.038706    0.135358    1.504608
    30 Ti    c    -22.577823           0.042184    0.162355    1.520772
    31 Ti    c    -24.146853           0.447205   -0.139258   -0.469355
    32 Ti    c    -24.098861          -0.267685   -0.224221   -0.454457
    33 Ti    c    -22.690447          -0.110117   -0.018957    1.518582
    34 Ti    c    -22.290242           0.084741    0.077722    1.527313
    35 Ti    c    -22.562444           0.522315    0.278476    1.686570
    36 Ti    c    -22.802403          -0.270586   -0.002870    1.692889
    37 Ti    c    -23.197230           0.025388    0.071486    0.139965
    38 Ti    c    -23.430714           0.010252    0.021720    0.139341
    39 Ti    c    -23.419347          -0.020604    0.055767    0.136338
    40 Ti    c    -23.373971          -0.019974    0.049297    0.145406
    41 Ti    c    -23.386479          -0.017587   -0.026020    0.123784
    42 Ti    c    -23.366826           0.014902    0.018558    0.159780
    43 Ti    c    -23.400654           0.029414    0.049613    0.144188
    44 Ti    c    -23.552063           0.033554   -0.118161    0.037132
    45 Ti    c    -23.682200          -0.112761    0.019993   -0.053819
    46 Ti    c    -23.539945          -0.132712    0.001090    0.047774
    47 Ti    c    -23.424918          -0.048398   -0.003246    0.130730
    48 Ti    c    -23.439376           0.064879    0.008090    0.034913
    49 Ti    c    -23.519780           0.222244   -0.117465   -0.079315
    50 Ti    c    -23.300023           0.161544    0.043831    0.035343
    51 Ti    c    -23.408734           0.090932   -0.132358    0.136888
    52 Ti    c    -23.426191           0.007151   -0.098900    0.119536
    53 Ti    c    -23.423026          -0.182087   -0.020739    0.022730
    54 Ti    c    -23.269515          -0.105207   -0.033425    0.186008
    55 Ti    c    -23.515548          -0.145433   -0.035769   -0.122640
    56 Ti    c    -23.595380           0.030894    0.052943   -0.120152
    57 Ti    c    -23.600274          -0.031308    0.054445   -0.149263
    58 Ti    c    -23.443794          -0.014049    0.052211    0.162866
    59 Ti    c    -23.600793           0.067582    0.044448   -0.149945
    60 Ti    c    -23.614168          -0.033688    0.041763   -0.129148
[...]
   880 O176  c     18.812965          -0.878549    3.044478   -1.206350
   881 O177  c     14.865743          -0.152741   -4.586638    0.230694
   882 O177  c     14.704190           0.473644    4.953722    0.732350
   883 C912  c      1.489134           0.407225    0.701432   -1.149562
   884 C912  c      1.654994           0.573692   -0.687206   -1.382642
   885 C912  c      1.256575          -0.275808    0.596595    0.936813
   886 C912  c      1.335335          -0.265845   -0.838929    0.820478
   887 C916  c    -15.171916          -1.899822   -2.215596    5.292101
   888 C917  c    -17.413721           2.412440    0.253763   -6.643345
   889 C902  c      2.050079           1.344963    0.291208   -3.924325
   890 C902  c      1.372998          -1.138589   -0.248385    3.303222
   891 H915  c     -1.532853          -0.105908    0.288385    0.144840
   892 H915  c     -0.970835           0.243861   -0.416158   -0.434893
   893 H915  c     -1.802302           0.145284    0.504463   -0.279793
   894 H915  c     -1.621964           0.114346   -0.498202   -0.289802

  Total time to end of lattice properties =    3179.5057 s

  Timing analysis for GULP :

  Task / Subroutine                                          Time (Seconds)
  Calculation of reciprocal space energy and derivatives        855.4862
  Calculation of real space energy and derivatives             1886.4383
  Calculation of three-body energy and derivatives                6.1744
  Calculation of four-body energy and derivatives                 6.6961
  Calculation of molecules and connectivity                       0.3365
  Calculation of phonons                                         32.3024
  Calculation of scattering                                       0.0000
  Calculation of matrix inversion                               386.5678
  Symmetry generation of equivalent positions                     0.0077
  Global summation overhead                                       0.0108

  Dump file written as fit1.res

  Job Finished at 16:54.32 27th May        2016