  Job Started  at 15:09.32 18th May        2016

  Number of CPUs =     1

  Total number of configurations input =   1

*  Input for Configuration =   1                                               *

  Formula = Ti180O446H84C160Zn24

  Number of irreducible atoms/shells =     894

  Total number atoms/shells =     894

  Dimensionality = 3               :  Bulk

  Cartesian lattice vectors (Angstroms) :

       17.724000    0.000000    0.000000
        0.000000   19.461000    0.000000
        0.000000    0.000000  114.868482

  Cell parameters (Angstroms/Degrees):

  a =      17.7240    alpha =  90.0000
  b =      19.4610    beta  =  90.0000
  c =     114.8685    gamma =  90.0000

  Initial cell volume =       39621.213782 Angs**3

  Temperature of configuration =  0.000     K

  Pressure of configuration =         0.000 GPa

  Fractional coordinates of asymmetric unit :

   No.  Atomic       x           y          z         Charge      Occupancy
        Label      (Frac)      (Frac)     (Frac)        (e)         (Frac)
      1 Ti    c    0.320000    0.733333    0.339268     2.43600    1.000000
      2 Ti    c    0.154733 *  0.399540 *  0.340047 *   2.43600    1.000000
      3 Ti    c    0.987882 *  0.399518 *  0.339996 *   2.43600    1.000000
      4 Ti    c    0.821031 *  0.399374 *  0.340046 *   2.43600    1.000000
      5 Ti    c    0.655875 *  0.398959 *  0.338484 *   2.43600    1.000000
      6 Ti    c    0.486893 *  0.399863 *  0.338981 *   2.43600    1.000000
      7 Ti    c    0.321485 *  0.399713 *  0.340136 *   2.43600    1.000000
      8 Ti    c    0.154620 *  0.065686 *  0.339506 *   2.43600    1.000000
      9 Ti    c    0.988260 *  0.065605 *  0.339948 *   2.43600    1.000000
     10 Ti    c    0.821544 *  0.066213 *  0.339915 *   2.43600    1.000000
     11 Ti    c    0.654361 *  0.065763 *  0.339824 *   2.43600    1.000000
     12 Ti    c    0.487322 *  0.065720 *  0.339875 *   2.43600    1.000000
     13 Ti    c    0.320980 *  0.065683 *  0.339932 *   2.43600    1.000000
     14 Ti    c    0.154429 *  0.733080 *  0.339426 *   2.43600    1.000000
     15 Ti    c    0.989002 *  0.732942 *  0.340038 *   2.43600    1.000000
     16 Ti    c    0.825858 *  0.732709 *  0.337876 *   2.43600    1.000000
     17 Ti    c    0.649446 *  0.731503 *  0.337827 *   2.43600    1.000000
     18 Ti    c    0.485966 *  0.731704 *  0.339966 *   2.43600    1.000000
     19 Ti    c    0.071007 *  0.232053 *  0.337796 *   2.43600    1.000000
     20 Ti    c    0.904101 *  0.232608 *  0.337806 *   2.43600    1.000000
     21 Ti    c    0.737473 *  0.233136 *  0.337706 *   2.43600    1.000000
     22 Ti    c    0.905627 *  0.899344 *  0.337788 *   2.43600    1.000000
     23 Ti    c    0.570559 *  0.898121 *  0.337709 *   2.43600    1.000000
     24 Ti    c    0.403348 *  0.899149 *  0.337755 *   2.43600    1.000000
     25 Ti    c    0.904221 *  0.566056 *  0.337625 *   2.43600    1.000000
     26 Ti    c    0.571439 *  0.564139 *  0.339324 *   2.43600    1.000000
     27 Ti    c    0.404836 *  0.566640 *  0.337517 *   2.43600    1.000000
     28 Ti    c    0.238192 *  0.231996 *  0.337823 *   2.43600    1.000000
     29 Ti    c    0.571455 *  0.230566 *  0.338069 *   2.43600    1.000000
     30 Ti    c    0.405153 *  0.233424 *  0.337820 *   2.43600    1.000000
     31 Ti    c    0.236742 *  0.899356 *  0.339268 *   2.43600    1.000000
     32 Ti    c    0.072263 *  0.899515 *  0.339440 *   2.43600    1.000000
     33 Ti    c    0.738001 *  0.901309 *  0.337468 *   2.43600    1.000000
     34 Ti    c    0.238060 *  0.566973 *  0.337636 *   2.43600    1.000000
     35 Ti    c    0.071000 *  0.566870 *  0.337681 *   2.43600    1.000000
     36 Ti    c    0.737647 *  0.564169 *  0.337206 *   2.43600    1.000000
     37 Ti    c    0.321030 *  0.565972 *  0.310434 *   2.43600    1.000000
     38 Ti    c    0.154504 *  0.232561 *  0.310703 *   2.43600    1.000000
     39 Ti    c    0.987762 *  0.232630 *  0.310636 *   2.43600    1.000000
     40 Ti    c    0.821201 *  0.232451 *  0.310518 *   2.43600    1.000000
     41 Ti    c    0.654435 *  0.232267 *  0.310666 *   2.43600    1.000000
     42 Ti    c    0.487914 *  0.232340 *  0.310711 *   2.43600    1.000000
     43 Ti    c    0.321200 *  0.232576 *  0.310629 *   2.43600    1.000000
     44 Ti    c    0.154233 *  0.899315 *  0.312141 *   2.43600    1.000000
     45 Ti    c    0.988118 *  0.899287 *  0.311093 *   2.43600    1.000000
     46 Ti    c    0.821172 *  0.899213 *  0.310446 *   2.43600    1.000000
     47 Ti    c    0.654283 *  0.899035 *  0.310439 *   2.43600    1.000000
     48 Ti    c    0.487618 *  0.899046 *  0.310494 *   2.43600    1.000000
     49 Ti    c    0.320722 *  0.899173 *  0.311132 *   2.43600    1.000000
     50 Ti    c    0.154393 *  0.565919 *  0.310560 *   2.43600    1.000000
     51 Ti    c    0.987914 *  0.565797 *  0.310451 *   2.43600    1.000000
     52 Ti    c    0.821387 *  0.565935 *  0.310222 *   2.43600    1.000000
     53 Ti    c    0.653932 *  0.565360 *  0.310974 *   2.43600    1.000000
     54 Ti    c    0.488193 *  0.565622 *  0.311023 *   2.43600    1.000000
     55 Ti    c    0.404039 *  0.732253 *  0.311164 *   2.43600    1.000000
     56 Ti    c    0.237645 *  0.399278 *  0.311465 *   2.43600    1.000000
     57 Ti    c    0.071105 *  0.399215 *  0.311431 *   2.43600    1.000000
     58 Ti    c    0.904606 *  0.399064 *  0.311393 *   2.43600    1.000000
     59 Ti    c    0.738655 *  0.398656 *  0.311034 *   2.43600    1.000000
     60 Ti    c    0.571020 *  0.398632 *  0.311143 *   2.43600    1.000000
     61 Ti    c    0.403867 *  0.398959 *  0.311212 *   2.43600    1.000000
[...]
    880 Zn172 c    0.607871 *  0.417274 *  0.541984 *   2.00000    1.000000
    881 Zn172 c    0.796197 *  0.417265 *  0.541248 *   2.00000    1.000000
    882 Zn172 c    0.704535 *  0.501569 *  0.561385 *   2.00000    1.000000
    883 Zn172 c    0.299505 *  0.917136 *  0.562246 *   2.00000    1.000000
    884 Zn172 c    0.203274 *  0.002038 *  0.542942 *   2.00000    1.000000
    885 Zn172 c    0.110651 *  0.917121 *  0.562775 *   2.00000    1.000000
    886 Zn172 c    0.203272 *  0.833085 *  0.542798 *   2.00000    1.000000
    887 Zn172 c    0.228782 *  0.831795 *  0.675099 *   2.00000    1.000000
    888 Zn172 c    0.132803 *  0.916489 *  0.655701 *   2.00000    1.000000
    889 Zn172 c    0.320777 *  0.916521 *  0.655129 *   2.00000    1.000000
    890 Zn172 c    0.228739 *  0.001365 *  0.675072 *   2.00000    1.000000
    891 Zn172 c    0.822664 *  0.416493 *  0.673311 *   2.00000    1.000000
    892 Zn172 c    0.728099 *  0.501522 *  0.653826 *   2.00000    1.000000
    893 Zn172 c    0.634241 *  0.416544 *  0.673442 *   2.00000    1.000000
    894 Zn172 c    0.728058 *  0.331606 *  0.653809 *   2.00000    1.000000

  Molecule list generated from bond lengths :

  Total number of molecules =    22

Molecule No./:  Atoms
Periodicity  :
     1  0    : O3   c   186 H22  c   187
     2  0    : O3   c   198 H22  c   199
     3  0    : O176 c   543 O176 c   545 O177 c   548 O177 c   550 C912 c   631
             : C912 c   633 C912 c   636 C912 c   638 C916 c   639 C917 c   642
             : C902 c   643 C902 c   646 H915 c   791 H915 c   793 H915 c   796
             : H915 c   798
     4  0    : O177 c   544 O177 c   546 O176 c   547 O176 c   549 C912 c   632
             : C912 c   634 C912 c   635 C912 c   637 C917 c   640 C916 c   641
             : C902 c   644 C902 c   645 H915 c   792 H915 c   794 H915 c   795
             : H915 c   797
     5  0    : O170 c   553 O170 c   555 O170 c   574 O170 c   576 C912 c   647
             : C912 c   649 C912 c   668 C912 c   670 C913 c   671 C913 c   682
             : C902 c   683 C902 c   694 H915 c   799 H915 c   801 H915 c   820
             : H915 c   822
     6  0    : O170 c   554 O170 c   556 O170 c   573 O170 c   575 C912 c   648
             : C912 c   650 C912 c   667 C912 c   669 C913 c   672 C913 c   681
             : C902 c   684 C902 c   693 H915 c   800 H915 c   802 H915 c   819
             : H915 c   821
     7  0    : O170 c   557 O170 c   559 O170 c   569 O170 c   571 C912 c   651
             : C912 c   653 C912 c   663 C912 c   665 C913 c   673 C913 c   679
             : C902 c   685 C902 c   691 H915 c   803 H915 c   805 H915 c   815
             : H915 c   817
     8  0    : O170 c   558 O170 c   560 O170 c   570 O170 c   572 C912 c   652
             : C912 c   654 C912 c   664 C912 c   666 C913 c   674 C913 c   680
             : C902 c   686 C902 c   692 H915 c   804 H915 c   806 H915 c   816
             : H915 c   818
     9  0    : O170 c   561 O170 c   563 O170 c   566 O170 c   568 C912 c   655
             : C912 c   657 C912 c   660 C912 c   662 C913 c   675 C913 c   678
             : C902 c   687 C902 c   690 H915 c   807 H915 c   809 H915 c   812
             : H915 c   814
    10  0    : O170 c   562 O170 c   564 O170 c   565 O170 c   567 C912 c   656
             : C912 c   658 C912 c   659 C912 c   661 C913 c   676 C913 c   677
             : C902 c   688 C902 c   689 H915 c   808 H915 c   810 H915 c   811
             : H915 c   813
    11  0    : O170 c   579 O170 c   581 O170 c   600 O170 c   602 C912 c   695
             : C912 c   697 C912 c   716 C912 c   718 C913 c   719 C913 c   730
             : C902 c   731 C902 c   742 H915 c   823 H915 c   825 H915 c   844
             : H915 c   846
    12  0    : O170 c   580 O170 c   582 O170 c   599 O170 c   601 C912 c   696
             : C912 c   698 C912 c   715 C912 c   717 C913 c   720 C913 c   729
             : C902 c   732 C902 c   741 H915 c   824 H915 c   826 H915 c   843
             : H915 c   845
    13  0    : O170 c   583 O170 c   585 O170 c   595 O170 c   597 C912 c   699
             : C912 c   701 C912 c   711 C912 c   713 C913 c   721 C913 c   727
             : C902 c   733 C902 c   739 H915 c   827 H915 c   829 H915 c   839
             : H915 c   841
    14  0    : O170 c   584 O170 c   586 O170 c   596 O170 c   598 C912 c   700
             : C912 c   702 C912 c   712 C912 c   714 C913 c   722 C913 c   728
             : C902 c   734 C902 c   740 H915 c   828 H915 c   830 H915 c   840
             : H915 c   842
    15  0    : O170 c   587 O170 c   589 O170 c   592 O170 c   594 C912 c   703
             : C912 c   705 C912 c   708 C912 c   710 C913 c   723 C913 c   726
             : C902 c   735 C902 c   738 H915 c   831 H915 c   833 H915 c   836
             : H915 c   838
    16  0    : O170 c   588 O170 c   590 O170 c   591 O170 c   593 C912 c   704
             : C912 c   706 C912 c   707 C912 c   709 C913 c   724 C913 c   725
             : C902 c   736 C902 c   737 H915 c   832 H915 c   834 H915 c   835
             : H915 c   837
    17  0    : O170 c   605 O170 c   607 O170 c   628 O170 c   630 C912 c   743
             : C912 c   745 C912 c   764 C912 c   766 C913 c   767 C913 c   778
             : C902 c   779 C902 c   790 H915 c   847 H915 c   849 H915 c   868
             : H915 c   870
    18  0    : O170 c   606 O170 c   608 O170 c   627 O170 c   629 C912 c   744
[...]
   71.74   72.19   72.58   72.83   76.51   77.15   77.69   78.08   78.34
   78.72   79.67   79.80   80.05   81.40   81.72   82.17   82.47   82.75
   83.20   83.34   83.84   84.30   84.51   86.26   86.54   86.77   89.48
   89.58   90.51   90.72   90.84   91.10   91.90   92.05   92.73   93.11
   93.85   94.42   95.23   95.40   95.62   95.99   96.47   96.77   96.97
   97.29   97.75   97.96   98.36   99.39   99.78  100.04  100.68  101.07
  101.17  102.36  102.50  102.98  103.23  103.78  104.12  104.29  105.13
  105.47  106.20  106.30  106.35  106.47  106.73  107.31  107.44  107.74
  108.11  108.64  108.98  109.20  109.95  110.01  110.37  110.58  111.16
  111.25  111.74  112.24  112.80  113.03  113.56  113.77  114.33  114.44
  114.94  115.48  115.85  116.12  116.71  117.48  117.83  118.36  118.69
  119.08  119.34  119.73  120.55  120.75  121.20  122.03  122.23  122.75
  123.29  123.32  123.60  123.70  123.93  124.93  125.30  125.56  125.65
  125.73  125.79  125.97  126.08  126.38  126.76  126.79  126.96  127.08
  127.28  127.49  127.62  127.70  127.82  128.20  128.28  129.02  130.42
  130.90  131.49  132.52  133.07  133.19  133.63  134.64  134.71  135.22
  135.43  135.49  135.87  136.64  137.32  137.42  137.68  137.79  138.89
  139.08  139.42  139.65  139.84  140.14  140.26  140.54  140.81  141.00
  141.18  141.55  141.82  142.38  142.43  142.97  143.18  143.59  143.64
  144.48  144.99  145.29  145.35  145.60  145.98  146.21  146.41  146.86
  146.95  147.04  147.17  147.63  147.68  147.94  148.35  148.74  148.92
  149.07  149.32  149.52  149.78  150.03  150.40  150.71  151.05  151.23
  151.42  151.60  151.67  152.03  152.21  152.51  152.75  152.85  152.90
  153.12  153.45  153.75  153.93  154.00  154.20  154.34  154.87  154.97
  155.31  155.40  156.21  156.44  156.52  156.79  156.96  157.64  157.80
  158.39  158.56  158.76  159.29  159.48  159.67  160.33  161.51  161.74
  162.66  163.02  163.43  163.76  164.39  164.71  165.11  165.24  165.56
  165.88  165.96  166.65  166.98  167.25  167.39  167.48  167.62  167.64
  167.76  167.99  168.12  168.38  168.62  169.04  169.39  169.73  170.81
  170.97  171.45  171.63  172.16  172.18  172.20  172.24  172.47  172.99
  173.28  173.43  173.64  173.83  174.23  174.75  175.30  175.55  175.80
  176.13  176.38  176.63  176.67  176.85  176.97  177.22  177.34  177.64
  178.05  178.30  178.86  179.06  179.31  179.61  179.81  179.90  180.18
  180.38  180.55  181.18  181.41  181.78  181.87  182.24  182.37  182.53
  182.65  182.76  183.15  183.46  183.69  183.72  183.90  184.78  185.15
  185.31  185.39  185.47  185.97  186.51  186.90  187.55  187.87  188.37
  188.63  188.98  189.09  189.34  189.61  189.76  189.87  190.25  190.40
  190.55  190.70  190.82  191.37  191.56  191.65  192.00  192.23  192.60
  192.67  193.06  193.48  193.62  193.88  194.09  194.39  194.54  194.75
  194.89  195.10  195.17  195.26  195.57  195.94  196.63  197.08  197.11
  197.24  197.41  197.86  198.28  198.71  198.92  199.22  199.84  200.16
  200.54  200.92  202.14  202.29  202.68  203.46  203.47  203.61  203.72
  203.85  204.69  205.01  205.08  205.40  205.65  205.87  205.93  206.33
  206.50  206.85  207.07  207.72  208.05  208.44  208.73  209.10  209.56
  210.01  210.79  210.91  211.43  211.54  211.76  212.13  212.71  213.02
  213.29  213.35  213.64  213.92  214.18  214.33  214.51  214.62  214.74
  214.87  214.98  215.28  215.37  215.58  215.66  215.90  216.01  216.10
  216.30  216.35  216.56  216.84  216.99  217.13  217.33  217.37  218.16
  218.23  218.31  218.42  218.50  218.75  218.82  219.20  219.60  219.77
  219.89  220.31  220.68  220.84  221.15  221.52  221.59  221.83  222.05
  222.25  222.53  222.78  222.92  223.04  223.57  224.22  224.35  224.57
[...]
 1491.04 1491.04 1491.24 1491.30 1491.32 1491.32 1491.37 1491.42 1491.94
 1492.03 1492.09 1609.96 1609.98 1610.04 1611.19 1611.22 1611.28 1611.57
 1611.76 1611.99 1612.17 1612.32 1612.42 1612.56 1612.67 1612.81 1612.92
 1613.13 1613.30 1622.86 1623.03 1623.27 1624.82 1624.85 1625.19 1625.35
 1625.53 1625.56 1625.76 1625.80 1625.81 1625.93 1626.01 1626.20 1626.49
 1626.60 1626.74 1627.18 1629.00 1665.94 1665.99 2943.39 2943.52 2943.52
 2943.81 2943.85 2943.86 2943.86 2943.89 2943.90 2943.90 2943.90 2943.91
 2943.93 2943.93 2943.93 2943.95 2943.96 2943.97 2943.98 2943.99 2944.00
 2944.05 2944.07 2944.08 2944.10 2944.15 2944.15 2944.17 2944.18 2944.20
 2944.21 2944.22 2944.24 2944.26 2944.30 2944.32 2944.33 2944.33 2944.34
 2944.38 2944.39 2944.40 2944.41 2944.44 2944.45 2944.47 2944.49 2944.49
 2944.52 2944.53 2944.57 2944.59 2944.62 2944.64 2944.66 2944.70 2944.77
 2944.78 2944.81 2945.19 2945.30 2945.31 2945.35 2945.35 2945.35 2945.38
 2945.40 2945.42 2945.43 2945.43 2945.48 2945.49 2945.55 2945.56 2945.60
 2945.60 2945.67 2945.85 2945.93 2946.39 3684.25 3684.41 3685.46 3688.87

  Phonon properties (per mole of unit cells): Temperature =      0.000 K
  Zero point energy            =       99.150974 eV

  Phonon density of states :

 Frequency (cm-1) Density of States
    0.00000 |***************                                               0.022
   57.63864 |*****************************                                 0.041
  115.27728 |***********************************************               0.066
  172.91591 |*********************************************************     0.080
  230.55455 |************************************************              0.068
  288.19319 |************************************************************  0.084
  345.83183 |********************************************                  0.063
  403.47046 |*********************************************************     0.081
  461.10910 |********************************************************      0.080
  518.74774 |*************************************                         0.053
  576.38638 |************************************                          0.052
  634.02502 |*******************************                               0.044
  691.66365 |************************************                          0.050
  749.30229 |****************                                              0.024
  806.94093 |**************                                                0.020
  864.57957 |**********                                                    0.014
  922.21820 |****************                                              0.022
  979.85684 |**********                                                    0.015
 1037.49548 |                                                              0.000
 1095.13412 |                                                              0.001
 1152.77276 |****************                                              0.022
 1210.41139 |*****                                                         0.007
 1268.05003 |*****                                                         0.007
 1325.68867 |*****                                                         0.007
 1383.32731 |****************                                              0.022
 1440.96594 |*****                                                         0.007
 1498.60458 |                                                              0.000
 1556.24322 |****                                                          0.007
 1613.88186 |*****                                                         0.008
 1671.52050 |                                                              0.000
 1729.15913 |                                                              0.000
 1786.79777 |                                                              0.000
 1844.43641 |                                                              0.000
 1902.07505 |                                                              0.000
 1959.71368 |                                                              0.000
 2017.35232 |                                                              0.000
 2074.99096 |                                                              0.000
 2132.62960 |                                                              0.000
 2190.26824 |                                                              0.000
 2247.90687 |                                                              0.000
 2305.54551 |                                                              0.000
 2363.18415 |                                                              0.000
 2420.82279 |                                                              0.000
 2478.46143 |                                                              0.000
 2536.10006 |                                                              0.000
 2593.73870 |                                                              0.000
 2651.37734 |                                                              0.000
 2709.01598 |                                                              0.000
 2766.65461 |                                                              0.000
 2824.29325 |                                                              0.000
 2881.93189 |                                                              0.000
 2939.57053 |*********************                                         0.030
 2997.20917 |                                                              0.000
 3054.84780 |                                                              0.000
 3112.48644 |                                                              0.000
 3170.12508 |                                                              0.000
 3227.76372 |                                                              0.000
 3285.40235 |                                                              0.000
 3343.04099 |                                                              0.000
 3400.67963 |                                                              0.000
 3458.31827 |                                                              0.000
 3515.95691 |                                                              0.000
 3573.59554 |                                                              0.000
 3631.23418 |*                                                             0.001

  Time to end of optimisation =    2346.6499 seconds

  Electrostatic potential at atomic positions :

 Site  Atomic      Potential                Derivatives (V/Angs)
 No.   Label          (V)                 x           y           z
     1 Ti    c    -25.105347           0.289521    0.008155   -1.611181
     2 Ti    c    -24.797176           0.007432   -0.018388   -1.650442
     3 Ti    c    -24.676693          -0.179958   -0.011012   -1.624697
     4 Ti    c    -24.268230          -0.353319    0.021013   -1.395386
     5 Ti    c    -23.471496          -1.171768   -0.283122   -0.469392
     6 Ti    c    -23.624766           1.392106   -0.276982   -0.465460
     7 Ti    c    -24.580141           0.313904   -0.004554   -1.456746
     8 Ti    c    -25.414165          -0.026921    0.143878   -1.640666
     9 Ti    c    -25.108964          -0.269617   -0.011494   -1.625317
    10 Ti    c    -24.692748          -0.192423   -0.043384   -1.622539
    11 Ti    c    -24.610427           0.058829   -0.068128   -1.626342
    12 Ti    c    -24.834170           0.220416   -0.102947   -1.639542
    13 Ti    c    -25.191605           0.210463    0.016462   -1.638175
    14 Ti    c    -25.298483          -0.143402   -0.127525   -1.605188
    15 Ti    c    -24.603060          -0.717359   -0.002760   -1.353510
    16 Ti    c    -22.832534          -1.937810    0.029601   -0.042973
    17 Ti    c    -22.794565           1.874681    0.030254   -0.081809
    18 Ti    c    -24.417511           0.640326    0.058714   -1.394303
    19 Ti    c    -22.793710          -0.144581    0.203964    1.559012
    20 Ti    c    -22.571452          -0.268176    0.178522    1.500554
    21 Ti    c    -22.396310          -0.129079    0.287784    1.549320
    22 Ti    c    -22.670674          -0.761762   -0.390684    1.605456
    23 Ti    c    -22.286433           0.451227   -0.376873    1.532011
    24 Ti    c    -23.004826           0.556203   -0.091312    1.564685
    25 Ti    c    -22.253717          -0.484190    0.210157    1.518910
    26 Ti    c    -23.169901           0.392104    0.608720   -0.221044
    27 Ti    c    -22.812001           0.094079   -0.007008    1.655017
    28 Ti    c    -22.813152           0.105380    0.221421    1.542204
    29 Ti    c    -22.751118           0.142316    0.192616    0.953499
    30 Ti    c    -22.623866           0.287439    0.358353    1.556611
    31 Ti    c    -24.537472           0.496806   -0.066548   -0.507003
    32 Ti    c    -24.470317          -0.632240   -0.130898   -0.573776
    33 Ti    c    -22.226570          -0.072907   -0.233306    1.519734
    34 Ti    c    -22.802399           0.073240   -0.155285    1.532524
    35 Ti    c    -22.670893          -0.246885   -0.060418    1.559370
    36 Ti    c    -22.321085           0.138943    0.220737    1.730650
    37 Ti    c    -23.539071          -0.026147   -0.054546    0.020836
    38 Ti    c    -23.517652          -0.010270    0.043358    0.146392
    39 Ti    c    -23.450230          -0.111589    0.043815    0.147212
    40 Ti    c    -23.348469          -0.069900   -0.016212    0.131727
    41 Ti    c    -23.272330           0.007098    0.032389    0.149631
    42 Ti    c    -23.354579           0.106209    0.032568    0.146613
    43 Ti    c    -23.501285           0.082175    0.015225    0.123445
    44 Ti    c    -23.795913          -0.051477    0.000234    0.036074
    45 Ti    c    -23.669043          -0.407219    0.021044   -0.041287
    46 Ti    c    -23.296435          -0.208521   -0.109121    0.040021
    47 Ti    c    -23.196512           0.047732   -0.106404    0.128615
    48 Ti    c    -23.449853           0.302282    0.027514    0.077400
    49 Ti    c    -23.785712           0.306679    0.001547   -0.071387
    50 Ti    c    -23.480385          -0.056065   -0.035376    0.152410
    51 Ti    c    -23.359236          -0.182046   -0.056665    0.169921
    52 Ti    c    -23.225013           0.043245    0.070900    0.018324
    53 Ti    c    -23.155636           0.032920    0.023487    0.122491
    54 Ti    c    -23.345549           0.198360   -0.113674    0.142803
    55 Ti    c    -23.781747           0.166860   -0.033363   -0.147086
    56 Ti    c    -23.742050           0.018016    0.024528   -0.167096
    57 Ti    c    -23.713600          -0.079836    0.029683   -0.196904
    58 Ti    c    -23.611012          -0.099398    0.044074   -0.121054
    59 Ti    c    -23.492452          -0.106171    0.070536   -0.112428
    60 Ti    c    -23.370529           0.088667    0.057171    0.174179
[...]
   880 Zn172 c    -20.573602          -0.527533    0.003360    0.079439
   881 Zn172 c    -20.570576           0.515818    0.004575    0.073990
   882 Zn172 c    -20.978704          -0.000418    0.244420    0.081279
   883 Zn172 c    -20.591904           0.548405   -0.000100   -0.120708
   884 Zn172 c    -21.000726           0.010652    0.267989   -0.033883
   885 Zn172 c    -20.589980          -0.545355    0.000375   -0.125162
   886 Zn172 c    -20.998439           0.008460   -0.272844   -0.034929
   887 Zn172 c    -20.887497           0.002756   -0.275749    0.125681
   888 Zn172 c    -20.648246          -0.476602    0.001338    0.101206
   889 Zn172 c    -20.648958           0.475342    0.001008    0.099565
   890 Zn172 c    -20.893553           0.004379    0.282023    0.115744
   891 Zn172 c    -20.662249           0.507122   -0.003291   -0.139216
   892 Zn172 c    -20.910718          -0.001006    0.307768   -0.051084
   893 Zn172 c    -20.668098          -0.513240   -0.005485   -0.149477
   894 Zn172 c    -20.911899          -0.000720   -0.307527   -0.052403

  Total time to end of lattice properties =    2386.5498 s

  Timing analysis for GULP :

  Task / Subroutine                                          Time (Seconds)
  Calculation of reciprocal space energy and derivatives        234.0242
  Calculation of real space energy and derivatives              157.5976
  Calculation of three-body energy and derivatives                0.4175
  Calculation of four-body energy and derivatives                 0.4749
  Calculation of molecules and connectivity                       0.3419
  Calculation of phonons                                         51.4606
  Calculation of scattering                                       0.0000
  Symmetry generation of equivalent positions                     0.0131
  Global summation overhead                                       0.0003

  Dump file written as fit1.res

  Job Finished at 16:19.01 18th May        2016