  Job Started  at 17:50.49 24th May        2016

  Number of CPUs =     1

  Total number of configurations input =   1

*  Input for Configuration =   1                                               *

  Formula = Ti180O360

  Number of irreducible atoms/shells =     540

  Total number atoms/shells =     540

  Dimensionality = 3               :  Bulk

  Cartesian lattice vectors (Angstroms) :

       17.724000    0.000000    0.000000
        0.000000   19.461000    0.000000
        0.000000    0.000000   48.346000

  Cell parameters (Angstroms/Degrees):

  a =      17.7240    alpha =  90.0000
  b =      19.4610    beta  =  90.0000
  c =      48.3460    gamma =  90.0000

  Initial cell volume =       16675.829332 Angs**3

  Temperature of configuration =  0.000     K

  Pressure of configuration =         0.000 GPa

  Fractional coordinates of asymmetric unit :

   No.  Atomic       x           y          z         Charge      Occupancy
        Label      (Frac)      (Frac)     (Frac)        (e)         (Frac)
      1 Ti    c    0.000000    0.333333    0.000000     2.43600    1.000000
      2 Ti    c    0.833333 *  0.000000 *  0.000000 *   2.43600    1.000000
      3 Ti    c    0.666667 *  0.000000 *  0.000000 *   2.43600    1.000000
      4 Ti    c    0.500000 *  0.000000 *  0.000000 *   2.43600    1.000000
      5 Ti    c    0.333333 *  0.000000 *  0.000000 *   2.43600    1.000000
      6 Ti    c    0.166667 *  0.000000 *  0.000000 *   2.43600    1.000000
      7 Ti    c    0.000000 *  0.000000 *  0.000000 *   2.43600    1.000000
      8 Ti    c    0.833333 *  0.666667 *  0.000000 *   2.43600    1.000000
      9 Ti    c    0.666667 *  0.666667 *  0.000000 *   2.43600    1.000000
     10 Ti    c    0.500000 *  0.666667 *  0.000000 *   2.43600    1.000000
     11 Ti    c    0.333333 *  0.666667 *  0.000000 *   2.43600    1.000000
     12 Ti    c    0.166667 *  0.666667 *  0.000000 *   2.43600    1.000000
     13 Ti    c    0.000000 *  0.666667 *  0.000000 *   2.43600    1.000000
     14 Ti    c    0.833333 *  0.333333 *  0.000000 *   2.43600    1.000000
     15 Ti    c    0.666667 *  0.333333 *  0.000000 *   2.43600    1.000000
     16 Ti    c    0.500000 *  0.333333 *  0.000000 *   2.43600    1.000000
     17 Ti    c    0.333333 *  0.333333 *  0.000000 *   2.43600    1.000000
     18 Ti    c    0.166667 *  0.333333 *  0.000000 *   2.43600    1.000000
     19 Ti    c    0.750000 *  0.833333 *  0.994911 *   2.43600    1.000000
     20 Ti    c    0.583333 *  0.833333 *  0.994911 *   2.43600    1.000000
     21 Ti    c    0.416667 *  0.833333 *  0.994911 *   2.43600    1.000000
     22 Ti    c    0.583333 *  0.500000 *  0.994911 *   2.43600    1.000000
     23 Ti    c    0.250000 *  0.500000 *  0.994911 *   2.43600    1.000000
     24 Ti    c    0.083333 *  0.500000 *  0.994911 *   2.43600    1.000000
     25 Ti    c    0.583333 *  0.166667 *  0.994911 *   2.43600    1.000000
     26 Ti    c    0.250000 *  0.166667 *  0.994911 *   2.43600    1.000000
     27 Ti    c    0.083333 *  0.166667 *  0.994911 *   2.43600    1.000000
     28 Ti    c    0.916667 *  0.833333 *  0.994911 *   2.43600    1.000000
     29 Ti    c    0.250000 *  0.833333 *  0.994911 *   2.43600    1.000000
     30 Ti    c    0.083333 *  0.833333 *  0.994911 *   2.43600    1.000000
     31 Ti    c    0.916667 *  0.500000 *  0.994911 *   2.43600    1.000000
     32 Ti    c    0.750000 *  0.500000 *  0.994911 *   2.43600    1.000000
     33 Ti    c    0.416667 *  0.500000 *  0.994911 *   2.43600    1.000000
     34 Ti    c    0.916667 *  0.166667 *  0.994911 *   2.43600    1.000000
     35 Ti    c    0.750000 *  0.166667 *  0.994911 *   2.43600    1.000000
     36 Ti    c    0.416667 *  0.166667 *  0.994911 *   2.43600    1.000000
     37 Ti    c    0.000000 *  0.166667 *  0.930361 *   2.43600    1.000000
     38 Ti    c    0.833333 *  0.833333 *  0.930361 *   2.43600    1.000000
     39 Ti    c    0.666667 *  0.833333 *  0.930361 *   2.43600    1.000000
     40 Ti    c    0.500000 *  0.833333 *  0.930361 *   2.43600    1.000000
     41 Ti    c    0.333333 *  0.833333 *  0.930361 *   2.43600    1.000000
     42 Ti    c    0.166667 *  0.833333 *  0.930361 *   2.43600    1.000000
     43 Ti    c    0.000000 *  0.833333 *  0.930361 *   2.43600    1.000000
     44 Ti    c    0.833333 *  0.500000 *  0.930361 *   2.43600    1.000000
     45 Ti    c    0.666667 *  0.500000 *  0.930361 *   2.43600    1.000000
     46 Ti    c    0.500000 *  0.500000 *  0.930361 *   2.43600    1.000000
     47 Ti    c    0.333333 *  0.500000 *  0.930361 *   2.43600    1.000000
     48 Ti    c    0.166667 *  0.500000 *  0.930361 *   2.43600    1.000000
     49 Ti    c    0.000000 *  0.500000 *  0.930361 *   2.43600    1.000000
     50 Ti    c    0.833333 *  0.166667 *  0.930361 *   2.43600    1.000000
     51 Ti    c    0.666667 *  0.166667 *  0.930361 *   2.43600    1.000000
     52 Ti    c    0.500000 *  0.166667 *  0.930361 *   2.43600    1.000000
     53 Ti    c    0.333333 *  0.166667 *  0.930361 *   2.43600    1.000000
     54 Ti    c    0.166667 *  0.166667 *  0.930361 *   2.43600    1.000000
     55 Ti    c    0.083333 *  0.333333 *  0.932186 *   2.43600    1.000000
     56 Ti    c    0.916667 *  0.000000 *  0.932186 *   2.43600    1.000000
     57 Ti    c    0.750000 *  0.000000 *  0.932186 *   2.43600    1.000000
     58 Ti    c    0.583333 *  0.000000 *  0.932186 *   2.43600    1.000000
     59 Ti    c    0.416667 *  0.000000 *  0.932186 *   2.43600    1.000000
     60 Ti    c    0.250000 *  0.000000 *  0.932186 *   2.43600    1.000000
     61 Ti    c    0.083333 *  0.000000 *  0.932186 *   2.43600    1.000000
[...]
    526 O2    c    0.583333 *  0.000000 *  0.711457 *  -1.21800    1.000000
    527 O2    c    0.416667 *  0.000000 *  0.711457 *  -1.21800    1.000000
    528 O2    c    0.250000 *  0.000000 *  0.711457 *  -1.21800    1.000000
    529 O2    c    0.083333 *  0.000000 *  0.711457 *  -1.21800    1.000000
    530 O2    c    0.916667 *  0.666667 *  0.711457 *  -1.21800    1.000000
    531 O2    c    0.750000 *  0.666667 *  0.711457 *  -1.21800    1.000000
    532 O2    c    0.583333 *  0.666667 *  0.711457 *  -1.21800    1.000000
    533 O2    c    0.416667 *  0.666667 *  0.711457 *  -1.21800    1.000000
    534 O2    c    0.250000 *  0.666667 *  0.711457 *  -1.21800    1.000000
    535 O2    c    0.083333 *  0.666667 *  0.711457 *  -1.21800    1.000000
    536 O2    c    0.916667 *  0.333333 *  0.711457 *  -1.21800    1.000000
    537 O2    c    0.750000 *  0.333333 *  0.711457 *  -1.21800    1.000000
    538 O2    c    0.583333 *  0.333333 *  0.711457 *  -1.21800    1.000000
    539 O2    c    0.416667 *  0.333333 *  0.711457 *  -1.21800    1.000000
    540 O2    c    0.250000 *  0.333333 *  0.711457 *  -1.21800    1.000000

  Molecule list generated from bond lengths :

  Total number of molecules =     0

*  General input information                                                   *

  Species output for all configurations :

  Species    Type    Atomic    Atomic    Charge       Radii (Angs)     Library
                     Number     Mass       (e)     Cova   Ionic  VDW   Symbol
    C913     Core        6      12.01   1.140000   0.770  0.000  1.530
    C902     Core        6      12.01   0.005000   0.770  0.000  1.530
    H915     Core        1       1.01   0.112500   0.370  0.000  1.080
    C912     Core        6      12.01  -0.070250   0.770  0.000  1.530
    O170     Core        8      16.00  -0.735000   0.730  0.000  1.360
    O172     Core        8      16.00  -0.714500   0.730  0.000  1.360
    H21      Core        1       1.01   0.220000   0.370  0.000  1.080
    O2       Core        8      16.00  -1.218000   0.730  0.000  1.360
    Ti       Core       22      47.88   2.436000   0.000  0.000  2.190

  Lattice summation method               =    Ewald          (3-D)
                                         =    Parry          (2-D)
                                         =    Saunders et al (1-D)
  Accuracy factor for lattice sums       =   12.000

  Time limit = Infinity

  Maximum range for interatomic potentials =    100000.000000 Angstroms

  General interatomic potentials :

Atom  Types   Potential      Parameter       Value         Units   Cutoffs(Ang)
  1     2                                                            Min /  Max
O2   c Ti   c MM3buck       MM3buck A        184000.00    None      3Bond 12.000
                            MM3buck B        11.500000    None
                            MM3buck C        2.5500000    None
                            MM3buck epsilon 0.12586926E-01eV
                            MM3buck rv       3.0441150    Ang
O2   c O2   c MM3buck       MM3buck A        184000.00    None      3Bond 12.000
                            MM3buck B        11.500000    None
                            MM3buck C        2.5500000    None
                            MM3buck epsilon 0.82031500E-02eV
                            MM3buck rv       3.1875200    Ang
O2   c O172 c MM3buck       MM3buck A        184000.00    None      3Bond  0.000
                            MM3buck B        11.500000    None
                            MM3buck C        2.5500000    None
                            MM3buck epsilon 0.45812399E-02eV
                            MM3buck rv       3.4137600    Ang
O2   c O170 c MM3buck       MM3buck A        184000.00    None      3Bond 12.000
                            MM3buck B        11.500000    None
                            MM3buck C        2.5500000    None
                            MM3buck epsilon 0.45812399E-02eV
                            MM3buck rv       3.4137600    Ang
O172 c Ti   c MM3buck       MM3buck A        184000.00    None      3Bond 12.000
                            MM3buck B        11.500000    None
                            MM3buck C        2.5500000    None
                            MM3buck epsilon 0.70294618E-02eV
                            MM3buck rv       3.2703550    Ang
O170 c Ti   c MM3buck       MM3buck A        184000.00    None      3Bond 12.000
                            MM3buck B        11.500000    None
                            MM3buck C        2.5500000    None
                            MM3buck epsilon 0.70294618E-02eV
                            MM3buck rv       3.2703550    Ang
Ti   c Ti   c MM3buck       MM3buck A        184000.00    None      3Bond 12.000
                            MM3buck B        11.500000    None
                            MM3buck C        2.5500000    None
                            MM3buck epsilon 0.19313400E-01eV
                            MM3buck rv       2.9007100    Ang
H21  c O2   c Lenn/es       Lennard epsilon  0.0000000    eV        3Bond 12.500
                            Lennard sigma/m  0.0000000    Ang
                            Exponent m        12          None
                            Exponent n         6          None
H21  c H21  c Lenn/es       Lennard epsilon 0.19900000E-02eV        3Bond 12.500
                            Lennard sigma/m 0.22450000    Ang
                            Exponent m        12          None
[...]
  126.94  127.04  127.04  127.08  127.08  127.17  128.73  128.73  128.73
  128.73  129.96  129.96  137.03  137.03  137.06  137.06  137.56  137.56
  139.18  139.18  139.18  139.18  139.59  139.59  139.59  139.59  141.41
  141.41  141.41  141.41  143.13  143.13  144.04  144.04  144.04  144.04
  144.79  144.79  145.09  145.09  147.10  147.10  147.78  147.78  148.71
  148.71  148.71  148.71  149.81  151.09  151.09  152.22  152.22  152.68
  152.68  153.83  153.83  154.67  154.67  155.24  155.24  155.48  155.48
  156.23  156.61  156.61  158.05  158.05  159.07  159.07  160.78  160.90
  160.90  160.90  160.90  163.19  164.45  165.95  165.95  165.96  165.96
  165.96  165.96  166.06  166.06  166.72  166.72  166.72  166.72  168.19
  168.43  168.43  168.57  168.57  168.57  168.57  169.29  169.29  171.94
  171.94  171.94  171.94  172.39  172.39  172.52  172.52  174.67  174.67
  174.67  174.67  175.96  175.96  175.96  175.96  176.28  176.28  177.70
  178.35  178.35  178.35  178.35  179.03  179.03  180.62  180.62  180.62
  180.62  181.26  181.26  182.44  182.44  182.44  182.44  183.39  183.39
  183.99  183.99  184.98  186.10  186.53  186.53  186.53  186.53  187.11
  187.11  189.57  189.57  189.66  189.66  189.72  189.72  189.82  190.85
  191.16  192.13  192.13  192.13  192.13  193.55  193.55  193.55  193.55
  194.98  194.98  195.00  195.00  195.00  195.00  196.96  196.96  198.22
  198.22  200.61  200.61  202.47  202.47  203.59  203.91  205.78  205.78
  205.85  205.85  205.85  205.85  206.21  206.21  206.21  206.21  207.64
  207.64  208.88  209.39  209.39  211.23  211.23  211.23  211.23  211.26
  211.27  212.90  212.91  213.50  213.50  213.50  213.50  214.07  214.07
  215.18  215.18  215.32  215.32  215.41  215.41  215.41  215.41  215.49
  215.72  215.72  215.72  215.72  215.81  215.81  215.97  215.97  216.84
  217.46  217.54  217.54  217.81  218.11  218.11  218.79  218.79  220.01
  220.01  220.01  220.01  220.82  220.82  220.82  220.82  221.45  221.45
  226.27  226.27  226.27  226.27  226.69  226.77  226.77  228.08  228.08
  228.08  228.08  228.54  228.83  228.83  228.83  228.83  228.92  230.59
  230.59  230.83  231.02  231.02  231.30  231.30  231.36  231.36  231.36
  231.36  232.37  232.37  233.26  233.26  234.63  234.63  235.02  235.02
  236.05  236.05  236.68  237.16  237.16  237.16  237.16  237.56  237.56
  238.88  238.88  239.89  239.89  240.35  240.35  241.54  241.54  243.34
  243.67  243.67  243.67  243.67  244.63  246.57  247.54  247.54  247.60
  247.60  247.60  247.60  249.01  250.85  250.85  250.85  250.85  251.49
  251.88  251.88  252.72  252.72  253.26  253.53  253.53  254.91  254.91
  256.96  256.96  256.96  256.96  257.25  257.25  257.25  257.25  257.47
  257.48  257.48  257.51  259.45  259.45  260.38  262.67  262.67  262.67
  262.67  263.35  263.35  263.35  263.35  264.76  264.76  264.76  264.76
  266.02  268.88  268.88  271.22  271.22  271.22  271.22  272.56  272.56
  273.23  273.74  273.74  273.74  273.74  276.00  276.00  276.97  276.97
  276.97  276.97  277.46  277.46  277.51  277.51  277.70  277.70  277.83
  278.17  278.35  278.35  279.03  279.03  279.03  279.03  279.27  279.28
  279.83  279.83  279.83  279.83  279.90  279.90  279.90  279.90  282.89
  282.89  285.27  285.27  291.25  291.25  291.48  291.48  296.03  296.03
  296.03  296.03  297.44  297.44  297.44  297.44  298.05  298.05  298.33
  298.33  298.33  298.33  298.88  298.88  299.10  299.10  299.49  299.49
  299.49  299.49  299.53  300.14  300.14  300.14  300.14  300.14  300.14
  303.20  303.20  303.26  303.26  303.74  303.74  304.07  304.07  304.14
  304.14  304.14  304.14  305.80  306.50  306.50  306.54  306.54  306.59
  306.59  306.74  306.74  307.63  307.63  307.63  307.63  307.89  307.89
  308.61  308.61  308.61  308.61  308.89  309.61  309.61  310.51  310.51
[...]
  703.66  703.84  703.84  703.84  703.84  706.52  706.93  706.93  707.70
  707.70  707.70  707.70  707.98  711.95  711.95  711.95  711.95  713.54
  713.96  713.96  716.59  716.73  716.73  719.17  719.17  719.17  719.17
  722.50  722.50  722.50  722.50  722.74  723.62  723.62  723.73  723.73
  724.02  724.02  724.02  724.02  724.65  724.65  728.36  728.36  728.36
  728.36  728.76  728.76  730.03  730.03  730.43  730.43  730.43  730.43
  730.74  730.74  733.63  734.69  734.69  736.11  736.20  738.68  738.68
  738.68  738.68  741.24  741.24  741.24  741.24  742.35  742.35  743.51
  744.34  744.34  745.91  748.71  748.71  749.21  749.21  749.21  749.21
  751.33  751.33  755.33  755.33  755.33  755.33  755.33  755.33  756.75
  756.75  757.36  757.36  757.36  757.36  757.49  757.49  758.00  758.00
  758.00  758.00  760.52  764.08  764.08  764.08  764.08  765.01  765.01
  770.65  770.65  771.44  771.44  772.92  773.41  773.41  778.84  778.84
  778.84  778.84  781.24  781.24  786.92  786.92  786.92  786.92  793.10
  793.10  795.44  795.44  799.32  799.32  805.91  813.07  813.07  818.45

  Phonon properties (per mole of unit cells): Temperature =      0.000 K
  Zero point energy            =       41.453538 eV

  Phonon density of states :

 Frequency (cm-1) Density of States
    0.00000 |***                                                           0.002
   12.78825 |                                                              0.000
   25.57650 |*                                                             0.001
   38.36475 |***                                                           0.002
   51.15300 |*                                                             0.001
   63.94126 |***                                                           0.002
   76.72951 |***************                                               0.008
   89.51776 |*************                                                 0.007
  102.30601 |****************                                              0.009
  115.09426 |********************************                              0.017
  127.88251 |***********************                                       0.012
  140.67076 |*********************************                             0.018
  153.45901 |**********************************                            0.019
  166.24726 |*******************************************                   0.023
  179.03551 |***********************************                           0.019
  191.82377 |***************************                                   0.015
  204.61202 |******************************************************        0.029
  217.40027 |****************************************                      0.022
  230.18852 |*****************************************                     0.022
  242.97677 |********************************                              0.017
  255.76502 |********************************                              0.017
  268.55327 |*************************************************             0.027
  281.34152 |*********                                                     0.005
  294.12977 |*********************************************************     0.031
  306.91802 |************************************************************  0.032
  319.70628 |*****************************************************         0.028
  332.49453 |***************************************                       0.021
  345.28278 |***************************************                       0.021
  358.07103 |************************************                          0.020
  370.85928 |**********************************                            0.019
  383.64753 |***************************************                       0.021
  396.43578 |***********************************                           0.019
  409.22403 |****************************************                      0.022
  422.01228 |**********************************************                0.025
  434.80054 |****************************************                      0.022
  447.58879 |**************************************************            0.027
  460.37704 |********************************************************      0.030
  473.16529 |***************************                                   0.015
  485.95354 |***************************************                       0.021
  498.74179 |*********************************************                 0.024
  511.53004 |************************************                          0.020
  524.31829 |********************************                              0.017
  537.10654 |*****************************************                     0.022
  549.89479 |***************************                                   0.015
  562.68305 |*****************                                             0.009
  575.47130 |***********                                                   0.006
  588.25955 |****************************************                      0.022
  601.04780 |************************************                          0.020
  613.83605 |**************************                                    0.014
  626.62430 |**************************                                    0.014
  639.41255 |**********************************                            0.019
  652.20080 |************************                                      0.013
  664.98905 |***************************                                   0.015
  677.77730 |***********************                                       0.012
  690.56556 |************                                                  0.007
  703.35381 |**************************                                    0.014
  716.14206 |********************************                              0.017
  728.93031 |************************                                      0.013
  741.71856 |****************                                              0.009
  754.50681 |****************************                                  0.015
  767.29506 |************                                                  0.007
  780.08331 |******                                                        0.004
  792.87156 |******                                                        0.004
  805.65981 |****                                                          0.002

  Time to end of optimisation =      21.4679 seconds

  Electrostatic potential at atomic positions :

 Site  Atomic      Potential                Derivatives (V/Angs)
 No.   Label          (V)                 x           y           z
     1 Ti    c    -25.527912          -0.000007   -0.000006   -1.702591
     2 Ti    c    -25.527940          -0.000007   -0.000009   -1.702591
     3 Ti    c    -25.527924          -0.000004   -0.000009   -1.702590
     4 Ti    c    -25.527927          -0.000007   -0.000009   -1.702589
     5 Ti    c    -25.527940          -0.000007   -0.000009   -1.702591
     6 Ti    c    -25.527924          -0.000004   -0.000009   -1.702590
     7 Ti    c    -25.527927          -0.000007   -0.000009   -1.702589
     8 Ti    c    -25.527926          -0.000007   -0.000012   -1.702593
     9 Ti    c    -25.527909          -0.000004   -0.000012   -1.702592
    10 Ti    c    -25.527912          -0.000007   -0.000012   -1.702591
    11 Ti    c    -25.527926          -0.000007   -0.000012   -1.702593
    12 Ti    c    -25.527909          -0.000004   -0.000012   -1.702592
    13 Ti    c    -25.527912          -0.000007   -0.000012   -1.702591
    14 Ti    c    -25.527926          -0.000007   -0.000006   -1.702593
    15 Ti    c    -25.527909          -0.000004   -0.000006   -1.702592
    16 Ti    c    -25.527912          -0.000007   -0.000006   -1.702591
    17 Ti    c    -25.527926          -0.000007   -0.000006   -1.702593
    18 Ti    c    -25.527909          -0.000004   -0.000006   -1.702592
    19 Ti    c    -23.351627           0.000012   -0.000004    1.537586
    20 Ti    c    -23.351625           0.000011   -0.000004    1.537586
    21 Ti    c    -23.351632           0.000013   -0.000004    1.537585
    22 Ti    c    -23.351631           0.000011   -0.000003    1.537582
    23 Ti    c    -23.351633           0.000012   -0.000003    1.537582
    24 Ti    c    -23.351631           0.000011   -0.000003    1.537582
    25 Ti    c    -23.351625           0.000011   -0.000002    1.537586
    26 Ti    c    -23.351627           0.000012   -0.000002    1.537586
    27 Ti    c    -23.351625           0.000011   -0.000002    1.537586
    28 Ti    c    -23.351632           0.000013   -0.000004    1.537585
    29 Ti    c    -23.351627           0.000012   -0.000004    1.537586
    30 Ti    c    -23.351625           0.000011   -0.000004    1.537586
    31 Ti    c    -23.351637           0.000013   -0.000003    1.537581
    32 Ti    c    -23.351633           0.000012   -0.000003    1.537582
    33 Ti    c    -23.351637           0.000013   -0.000003    1.537581
    34 Ti    c    -23.351632           0.000013   -0.000002    1.537585
    35 Ti    c    -23.351627           0.000012   -0.000002    1.537586
    36 Ti    c    -23.351632           0.000013   -0.000002    1.537585
    37 Ti    c    -24.133623          -0.000008   -0.000012    0.131077
    38 Ti    c    -24.133624          -0.000014   -0.000009    0.131077
    39 Ti    c    -24.133630          -0.000011   -0.000009    0.131078
    40 Ti    c    -24.133623          -0.000008   -0.000009    0.131077
    41 Ti    c    -24.133624          -0.000014   -0.000009    0.131077
    42 Ti    c    -24.133630          -0.000011   -0.000009    0.131078
    43 Ti    c    -24.133623          -0.000008   -0.000009    0.131077
    44 Ti    c    -24.133609          -0.000014   -0.000010    0.131077
    45 Ti    c    -24.133614          -0.000011   -0.000010    0.131078
    46 Ti    c    -24.133607          -0.000008   -0.000010    0.131077
    47 Ti    c    -24.133609          -0.000014   -0.000010    0.131077
    48 Ti    c    -24.133614          -0.000011   -0.000010    0.131078
    49 Ti    c    -24.133607          -0.000008   -0.000010    0.131077
    50 Ti    c    -24.133624          -0.000014   -0.000012    0.131077
    51 Ti    c    -24.133630          -0.000011   -0.000012    0.131078
    52 Ti    c    -24.133623          -0.000008   -0.000012    0.131077
    53 Ti    c    -24.133624          -0.000014   -0.000012    0.131077
    54 Ti    c    -24.133630          -0.000011   -0.000012    0.131078
    55 Ti    c    -24.442720           0.000009   -0.000006   -0.194349
    56 Ti    c    -24.442737           0.000011   -0.000005   -0.194351
    57 Ti    c    -24.442733           0.000007   -0.000005   -0.194350
    58 Ti    c    -24.442731           0.000009   -0.000005   -0.194348
    59 Ti    c    -24.442737           0.000011   -0.000005   -0.194351
    60 Ti    c    -24.442733           0.000007   -0.000005   -0.194350
[...]
   526 O2    c     16.634490          -0.000007   -0.000004    7.815130
   527 O2    c     16.634484          -0.000013   -0.000004    7.815129
   528 O2    c     16.634486          -0.000005   -0.000004    7.815130
   529 O2    c     16.634490          -0.000007   -0.000004    7.815130
   530 O2    c     16.634494          -0.000013   -0.000004    7.815133
   531 O2    c     16.634496          -0.000005   -0.000004    7.815134
   532 O2    c     16.634500          -0.000007   -0.000004    7.815134
   533 O2    c     16.634494          -0.000013   -0.000004    7.815133
   534 O2    c     16.634496          -0.000005   -0.000004    7.815134
   535 O2    c     16.634500          -0.000007   -0.000004    7.815134
   536 O2    c     16.634494          -0.000013   -0.000003    7.815133
   537 O2    c     16.634496          -0.000005   -0.000003    7.815134
   538 O2    c     16.634500          -0.000007   -0.000003    7.815134
   539 O2    c     16.634494          -0.000013   -0.000003    7.815133
   540 O2    c     16.634496          -0.000005   -0.000003    7.815134

  Total time to end of lattice properties =      27.0283 s

  Timing analysis for GULP :

  Task / Subroutine                                          Time (Seconds)
  Calculation of reciprocal space energy and derivatives         16.5003
  Calculation of real space energy and derivatives                5.8287
  Calculation of three-body energy and derivatives                0.0003
  Calculation of four-body energy and derivatives                 0.0001
  Calculation of molecules and connectivity                       0.0411
  Calculation of phonons                                          7.3219
  Calculation of scattering                                       0.0000
  Symmetry generation of equivalent positions                     0.0023

  Dump file written as fit1.res

  Job Finished at 17:51.16 24th May        2016