  Job Started  at 19:51.23 24th May        2016

  Number of CPUs =     1

  Total number of configurations input =   1

*  Input for Configuration =   1                                               *

  Formula = Ti180O360H

  Number of irreducible atoms/shells =     541

  Total number atoms/shells =     541

  Dimensionality = 3               :  Bulk

  Charge on solid   =   1.000000 =>neutralising background added

  Cartesian lattice vectors (Angstroms) :

       17.724000    0.000000    0.000000
        0.000000   19.461000    0.000000
        0.000000    0.000000   48.346000

  Cell parameters (Angstroms/Degrees):

  a =      17.7240    alpha =  90.0000
  b =      19.4610    beta  =  90.0000
  c =      48.3460    gamma =  90.0000

  Initial cell volume =       16675.829332 Angs**3

  Temperature of configuration =  0.000     K

  Pressure of configuration =         0.000 GPa

  Fractional coordinates of asymmetric unit :

   No.  Atomic       x           y          z         Charge      Occupancy
        Label      (Frac)      (Frac)     (Frac)        (e)         (Frac)
      1 Ti    c    0.000000    0.333333    0.000000     2.43600    1.000000
      2 Ti    c    0.833333 *  0.000000 *  0.000000 *   2.43600    1.000000
      3 Ti    c    0.666667 *  0.000000 *  0.000000 *   2.43600    1.000000
      4 Ti    c    0.500000 *  0.000000 *  0.000000 *   2.43600    1.000000
      5 Ti    c    0.333333 *  0.000000 *  0.000000 *   2.43600    1.000000
      6 Ti    c    0.166667 *  0.000000 *  0.000000 *   2.43600    1.000000
      7 Ti    c    0.000000 *  0.000000 *  0.000000 *   2.43600    1.000000
      8 Ti    c    0.833333 *  0.666667 *  0.000000 *   2.43600    1.000000
      9 Ti    c    0.666667 *  0.666667 *  0.000000 *   2.43600    1.000000
     10 Ti    c    0.500000 *  0.666667 *  0.000000 *   2.43600    1.000000
     11 Ti    c    0.333333 *  0.666667 *  0.000000 *   2.43600    1.000000
     12 Ti    c    0.166667 *  0.666667 *  0.000000 *   2.43600    1.000000
     13 Ti    c    0.000000 *  0.666667 *  0.000000 *   2.43600    1.000000
     14 Ti    c    0.833333 *  0.333333 *  0.000000 *   2.43600    1.000000
     15 Ti    c    0.666667 *  0.333333 *  0.000000 *   2.43600    1.000000
     16 Ti    c    0.500000 *  0.333333 *  0.000000 *   2.43600    1.000000
     17 Ti    c    0.333333 *  0.333333 *  0.000000 *   2.43600    1.000000
     18 Ti    c    0.166667 *  0.333333 *  0.000000 *   2.43600    1.000000
     19 Ti    c    0.750000 *  0.833333 *  0.994911 *   2.43600    1.000000
     20 Ti    c    0.583333 *  0.833333 *  0.994911 *   2.43600    1.000000
     21 Ti    c    0.416667 *  0.833333 *  0.994911 *   2.43600    1.000000
     22 Ti    c    0.583333 *  0.500000 *  0.994911 *   2.43600    1.000000
     23 Ti    c    0.250000 *  0.500000 *  0.994911 *   2.43600    1.000000
     24 Ti    c    0.083333 *  0.500000 *  0.994911 *   2.43600    1.000000
     25 Ti    c    0.583333 *  0.166667 *  0.994911 *   2.43600    1.000000
     26 Ti    c    0.250000 *  0.166667 *  0.994911 *   2.43600    1.000000
     27 Ti    c    0.083333 *  0.166667 *  0.994911 *   2.43600    1.000000
     28 Ti    c    0.916667 *  0.833333 *  0.994911 *   2.43600    1.000000
     29 Ti    c    0.250000 *  0.833333 *  0.994911 *   2.43600    1.000000
     30 Ti    c    0.083333 *  0.833333 *  0.994911 *   2.43600    1.000000
     31 Ti    c    0.916667 *  0.500000 *  0.994911 *   2.43600    1.000000
     32 Ti    c    0.750000 *  0.500000 *  0.994911 *   2.43600    1.000000
     33 Ti    c    0.416667 *  0.500000 *  0.994911 *   2.43600    1.000000
     34 Ti    c    0.916667 *  0.166667 *  0.994911 *   2.43600    1.000000
     35 Ti    c    0.750000 *  0.166667 *  0.994911 *   2.43600    1.000000
     36 Ti    c    0.416667 *  0.166667 *  0.994911 *   2.43600    1.000000
     37 Ti    c    0.000000 *  0.166667 *  0.930361 *   2.43600    1.000000
     38 Ti    c    0.833333 *  0.833333 *  0.930361 *   2.43600    1.000000
     39 Ti    c    0.666667 *  0.833333 *  0.930361 *   2.43600    1.000000
     40 Ti    c    0.500000 *  0.833333 *  0.930361 *   2.43600    1.000000
     41 Ti    c    0.333333 *  0.833333 *  0.930361 *   2.43600    1.000000
     42 Ti    c    0.166667 *  0.833333 *  0.930361 *   2.43600    1.000000
     43 Ti    c    0.000000 *  0.833333 *  0.930361 *   2.43600    1.000000
     44 Ti    c    0.833333 *  0.500000 *  0.930361 *   2.43600    1.000000
     45 Ti    c    0.666667 *  0.500000 *  0.930361 *   2.43600    1.000000
     46 Ti    c    0.500000 *  0.500000 *  0.930361 *   2.43600    1.000000
     47 Ti    c    0.333333 *  0.500000 *  0.930361 *   2.43600    1.000000
     48 Ti    c    0.166667 *  0.500000 *  0.930361 *   2.43600    1.000000
     49 Ti    c    0.000000 *  0.500000 *  0.930361 *   2.43600    1.000000
     50 Ti    c    0.833333 *  0.166667 *  0.930361 *   2.43600    1.000000
     51 Ti    c    0.666667 *  0.166667 *  0.930361 *   2.43600    1.000000
     52 Ti    c    0.500000 *  0.166667 *  0.930361 *   2.43600    1.000000
     53 Ti    c    0.333333 *  0.166667 *  0.930361 *   2.43600    1.000000
     54 Ti    c    0.166667 *  0.166667 *  0.930361 *   2.43600    1.000000
     55 Ti    c    0.083333 *  0.333333 *  0.932186 *   2.43600    1.000000
     56 Ti    c    0.916667 *  0.000000 *  0.932186 *   2.43600    1.000000
     57 Ti    c    0.750000 *  0.000000 *  0.932186 *   2.43600    1.000000
     58 Ti    c    0.583333 *  0.000000 *  0.932186 *   2.43600    1.000000
     59 Ti    c    0.416667 *  0.000000 *  0.932186 *   2.43600    1.000000
     60 Ti    c    0.250000 *  0.000000 *  0.932186 *   2.43600    1.000000
     61 Ti    c    0.083333 *  0.000000 *  0.932186 *   2.43600    1.000000
[...]
    527 O2    c    0.416667 *  0.000000 *  0.711457 *  -1.21800    1.000000
    528 O2    c    0.250000 *  0.000000 *  0.711457 *  -1.21800    1.000000
    529 O2    c    0.083333 *  0.000000 *  0.711457 *  -1.21800    1.000000
    530 O2    c    0.916667 *  0.666667 *  0.711457 *  -1.21800    1.000000
    531 O2    c    0.750000 *  0.666667 *  0.711457 *  -1.21800    1.000000
    532 O3    c    0.583333 *  0.666667 *  0.711457 *  -0.33800    1.000000
    533 O2    c    0.416667 *  0.666667 *  0.711457 *  -1.21800    1.000000
    534 O2    c    0.250000 *  0.666667 *  0.711457 *  -1.21800    1.000000
    535 O2    c    0.083333 *  0.666667 *  0.711457 *  -1.21800    1.000000
    536 O2    c    0.916667 *  0.333333 *  0.711457 *  -1.21800    1.000000
    537 O2    c    0.750000 *  0.333333 *  0.711457 *  -1.21800    1.000000
    538 O2    c    0.583333 *  0.333333 *  0.711457 *  -1.21800    1.000000
    539 O2    c    0.416667 *  0.333333 *  0.711457 *  -1.21800    1.000000
    540 O2    c    0.250000 *  0.333333 *  0.711457 *  -1.21800    1.000000
    541 H22   c    0.583333 *  0.666667 *  0.691457 *   0.12000    1.000000

  Molecule list generated from bond lengths :

  Total number of molecules =     1

Molecule No./:  Atoms
Periodicity  :
     1  0    : O3   c   532 H22  c   541

*  General input information                                                   *

  Species output for all configurations :

  Species    Type    Atomic    Atomic    Charge       Radii (Angs)     Library
                     Number     Mass       (e)     Cova   Ionic  VDW   Symbol
    C913     Core        6      12.01   1.070500   0.770  0.000  1.530
    O170     Core        8      16.00  -1.080000   0.730  0.000  1.360
    O172     Core        8      16.00  -0.690000   0.730  0.000  1.360
    O173     Core        8      16.00  -0.690000   0.730  0.000  1.360
    C914     Core        6      12.01   1.070500   0.770  0.000  1.530
    O175     Core        8      16.00  -1.080000   0.730  0.000  1.360
    C915     Core        6      12.01   1.070500   0.770  0.000  1.530
    C917     Core        6      12.01   1.070500   0.770  0.000  1.530
    O177     Core        8      16.00  -1.080000   0.730  0.000  1.360
    O176     Core        8      16.00  -1.080000   0.730  0.000  1.360
    C916     Core        6      12.01   1.070500   0.770  0.000  1.530
    C902     Core        6      12.01   0.005000   0.770  0.000  1.530
    H915     Core        1       1.01   0.112500   0.370  0.000  1.080
    C912     Core        6      12.01  -0.070250   0.770  0.000  1.530
    H21      Core        1       1.01   0.220000   0.370  0.000  1.080
    H22      Core        1       1.01   0.120000   0.370  0.000  1.080
    O2       Core        8      16.00  -1.218000   0.730  0.000  1.360
    Ti       Core       22      47.88   2.436000   0.000  0.000  2.190
    O3       Core        8      16.00  -0.338000   0.730  0.000  1.360
    Zn172    Core       30      65.39   2.000000   0.000  0.000  2.160
    O171     Core        8      16.00  -2.000000   0.730  0.000  1.360

  Lattice summation method               =    Ewald          (3-D)
                                         =    Parry          (2-D)
                                         =    Saunders et al (1-D)
  Accuracy factor for lattice sums       =   12.000

  Time limit = Infinity

  Maximum range for interatomic potentials =    100000.000000 Angstroms

  General interatomic potentials :

Atom  Types   Potential      Parameter       Value         Units   Cutoffs(Ang)
  1     2                                                            Min /  Max
O175 c Zn172c MM3buck       MM3buck A        184000.00    None      3Bond 12.000
                            MM3buck B        11.500000    None
                            MM3buck C        2.5500000    None
                            MM3buck epsilon 0.31250271E-02eV
                            MM3buck rv       3.9595000    Ang
O176 c Zn172c MM3buck       MM3buck A        184000.00    None      3Bond 12.000
                            MM3buck B        11.500000    None
                            MM3buck C        2.5500000    None
                            MM3buck epsilon 0.31250271E-02eV
                            MM3buck rv       3.9595000    Ang
O177 c Zn172c MM3buck       MM3buck A        184000.00    None      3Bond 12.000
                            MM3buck B        11.500000    None
                            MM3buck C        2.5500000    None
                            MM3buck epsilon 0.31250271E-02eV
                            MM3buck rv       3.9595000    Ang
O170 c Zn172c MM3buck       MM3buck A        184000.00    None      3Bond 12.000
                            MM3buck B        11.500000    None
                            MM3buck C        2.5500000    None
                            MM3buck epsilon 0.31250271E-02eV
                            MM3buck rv       3.9595000    Ang
O171 c Zn172c MM3buck       MM3buck A        184000.00    None      3Bond 12.000
                            MM3buck B        11.500000    None
                            MM3buck C        2.5500000    None
                            MM3buck epsilon 0.55956611E-02eV
                            MM3buck rv       3.7332600    Ang
O3   c Ti   c MM3buck       MM3buck A        184000.00    None      3Bond 12.000
                            MM3buck B        11.500000    None
[...]
  128.07  130.29  130.70  131.81  133.99  134.03  136.59  137.25  137.37
  137.95  137.96  138.31  138.74  138.81  138.88  139.49  139.87  139.88
  140.74  140.82  141.26  141.96  141.97  142.05  142.73  142.96  143.56
  143.73  144.06  144.42  145.69  145.73  146.59  146.91  147.02  147.24
  147.49  148.57  148.71  150.72  151.03  151.16  151.79  152.17  152.35
  152.51  152.77  152.95  153.45  153.70  154.20  154.38  154.77  154.79
  155.32  156.18  156.43  156.49  156.82  157.32  157.62  158.03  159.60
  160.07  160.29  161.13  162.43  162.87  163.48  163.95  164.62  164.73
  165.20  165.58  165.64  165.85  165.86  166.44  166.49  166.94  167.12
  167.34  167.82  167.90  168.24  168.38  168.52  168.75  169.33  170.60
  170.73  171.36  171.89  171.91  172.00  172.49  172.72  173.51  174.32
  174.65  174.77  175.72  175.85  175.85  176.03  176.16  176.78  177.08
  177.61  177.96  178.49  178.60  178.90  179.00  179.89  180.53  180.72
  181.11  181.61  181.78  182.21  182.35  182.42  182.43  183.23  183.28
  183.40  184.10  184.14  185.15  185.78  186.11  186.12  186.35  186.47
  186.58  187.68  188.58  189.00  189.07  189.28  189.43  189.83  190.01
  190.52  191.11  191.59  192.12  192.15  192.69  192.94  193.63  193.96
  194.18  194.33  194.47  194.52  194.76  195.66  196.77  196.96  198.16
  198.16  199.34  200.39  201.84  202.22  202.33  202.40  202.83  204.59
  205.24  205.31  205.36  205.51  205.69  205.71  205.80  206.24  206.29
  206.56  208.00  208.15  208.64  209.04  210.36  211.01  211.11  211.17
  211.41  211.52  212.22  212.59  212.63  212.89  212.98  213.13  213.22
  213.29  213.91  214.17  214.33  214.35  214.40  214.67  214.77  215.05
  215.14  215.31  215.39  215.46  215.50  215.84  216.10  216.14  216.17
  216.68  216.78  217.06  217.07  217.73  218.20  218.27  218.88  219.06
  219.37  219.43  220.20  220.31  220.37  220.79  221.05  221.35  221.87
  222.11  222.19  225.75  225.86  225.92  225.97  226.02  226.49  226.59
  226.94  227.75  227.90  228.00  228.19  228.24  228.43  229.01  229.06
  229.15  229.34  230.24  230.31  230.67  230.86  230.94  231.10  231.45
  231.58  231.98  232.18  233.03  233.24  233.41  233.59  234.30  234.72
  234.79  235.54  235.57  235.91  236.13  236.52  236.81  236.85  237.00
  237.08  237.26  239.13  239.19  239.91  239.98  240.20  240.37  241.32
  241.55  242.44  243.11  243.14  243.70  245.11  245.99  246.14  247.07
  247.35  247.38  247.46  247.71  247.93  248.09  250.25  250.40  250.45
  250.47  251.05  251.41  251.86  252.11  252.72  252.74  253.34  253.71
  254.36  255.30  256.00  256.37  256.65  256.65  256.65  257.00  257.06
  257.33  257.36  257.65  257.81  258.23  259.30  259.50  260.20  261.25
  262.33  262.43  262.96  263.04  263.07  263.73  263.83  264.41  264.71
  265.80  265.98  266.00  267.48  268.75  268.89  270.27  270.73  271.08
  271.48  271.89  271.99  272.62  272.97  273.18  274.02  274.63  275.26
  275.67  276.06  276.25  276.33  276.81  277.07  277.29  277.43  277.59
  277.62  277.76  277.83  278.01  278.48  278.76  278.88  279.24  279.24
  279.28  279.50  279.52  279.74  279.86  279.90  280.20  281.10  282.22
  282.67  283.47  283.52  283.91  286.49  286.89  290.52  290.95  291.02
  291.25  295.09  295.43  295.55  295.55  296.34  296.54  296.60  296.91
  297.43  297.60  297.90  297.95  298.32  298.49  298.65  298.71  298.75
  298.91  299.04  299.45  299.57  299.59  299.67  299.87  299.93  299.95
  300.56  300.95  301.06  301.29  302.35  302.70  302.77  302.98  303.02
  303.11  303.53  303.75  303.76  304.27  304.29  304.49  305.46  305.83
  306.00  306.00  306.12  306.15  306.28  306.32  306.44  306.61  307.01
  307.22  307.27  307.48  307.55  307.99  308.07  308.13  308.53  308.62
[...]
  707.07  707.29  707.41  707.53  707.92  708.01  712.01  712.10  712.14
  712.71  712.85  713.01  713.57  716.44  716.89  717.10  717.18  718.46
  718.68  719.29  719.72  720.65  722.18  722.19  722.23  722.68  722.71
  723.48  723.62  724.67  725.61  725.80  726.46  727.21  727.48  727.81
  727.85  728.47  728.82  729.10  729.14  729.34  729.87  729.95  730.08
  730.82  731.12  731.18  733.92  734.37  735.07  735.28  735.80  738.69
  738.75  738.96  739.74  740.85  740.85  741.43  741.55  741.91  741.92
  742.65  744.05  744.91  745.56  746.26  746.77  747.73  747.84  748.03
  748.81  749.05  751.80  752.17  752.35  755.20  756.31  756.45  756.87
  756.88  757.24  757.31  757.52  758.33  758.51  759.14  759.56  760.27
  760.70  760.82  760.87  760.92  761.81  763.73  766.07  766.14  766.19
  766.31  766.75  770.11  770.27  772.21  772.31  773.83  776.15  776.29
  779.12  779.26  779.32  780.22  782.36  783.03  786.96  787.24  787.26
  787.79  792.19  792.53  795.34  795.44  800.06  800.33  805.57  813.38
  813.73  818.45 3688.68

  Phonon properties (per mole of unit cells): Temperature =      0.000 K
  Zero point energy            =       41.663453 eV

  Phonon density of states :

 Frequency (cm-1) Density of States
    0.00000 |**                                                            0.005
   57.63565 |**************                                                0.028
  115.27130 |****************************************                      0.077
  172.90695 |***************************************************           0.098
  230.54260 |********************************************                  0.084
  288.17825 |************************************************************  0.115
  345.81390 |************************************************              0.092
  403.44955 |********************************************************      0.107
  461.08520 |**************************************************            0.096
  518.72085 |*************************************                         0.071
  576.35650 |************************************                          0.069
  633.99215 |**********************************                            0.066
  691.62780 |******************************                                0.058
  749.26345 |****************                                              0.031
  806.89910 |                                                              0.002
  864.53475 |                                                              0.000
  922.17040 |                                                              0.000
  979.80605 |                                                              0.000
 1037.44170 |                                                              0.000
 1095.07735 |                                                              0.000
 1152.71300 |                                                              0.000
 1210.34865 |                                                              0.000
 1267.98430 |                                                              0.000
 1325.61995 |                                                              0.000
 1383.25560 |                                                              0.000
 1440.89125 |                                                              0.000
 1498.52690 |                                                              0.000
 1556.16255 |                                                              0.000
 1613.79820 |                                                              0.000
 1671.43385 |                                                              0.000
 1729.06950 |                                                              0.000
 1786.70515 |                                                              0.000
 1844.34080 |                                                              0.000
 1901.97645 |                                                              0.000
 1959.61210 |                                                              0.000
 2017.24775 |                                                              0.000
 2074.88340 |                                                              0.000
 2132.51905 |                                                              0.000
 2190.15470 |                                                              0.000
 2247.79035 |                                                              0.000
 2305.42600 |                                                              0.000
 2363.06165 |                                                              0.000
 2420.69730 |                                                              0.000
 2478.33295 |                                                              0.000
 2535.96860 |                                                              0.000
 2593.60425 |                                                              0.000
 2651.23990 |                                                              0.000
 2708.87555 |                                                              0.000
 2766.51120 |                                                              0.000
 2824.14685 |                                                              0.000
 2881.78250 |                                                              0.000
 2939.41815 |                                                              0.000
 2997.05380 |                                                              0.000
 3054.68945 |                                                              0.000
 3112.32510 |                                                              0.000
 3169.96075 |                                                              0.000
 3227.59640 |                                                              0.000
 3285.23205 |                                                              0.000
 3342.86770 |                                                              0.000
 3400.50335 |                                                              0.000
 3458.13900 |                                                              0.000
 3515.77465 |                                                              0.000
 3573.41030 |                                                              0.000
 3631.04595 |                                                              0.001

  Time to end of optimisation =      58.7738 seconds

  Electrostatic potential at atomic positions :

 Site  Atomic      Potential                Derivatives (V/Angs)
 No.   Label          (V)                 x           y           z
     1 Ti    c    -25.086988          -0.004787    0.005999   -1.769721
     2 Ti    c    -25.077257          -0.009642   -0.003230   -1.766624
     3 Ti    c    -25.067312          -0.004870   -0.000233   -1.763468
     4 Ti    c    -25.067312           0.004870   -0.000233   -1.763468
     5 Ti    c    -25.077257           0.009642   -0.003231   -1.766624
     6 Ti    c    -25.086988           0.004786   -0.005999   -1.769721
     7 Ti    c    -25.086988          -0.004787   -0.005999   -1.769721
     8 Ti    c    -25.057029          -0.016531   -0.000000   -1.768860
     9 Ti    c    -25.034684          -0.008545   -0.000000   -1.758058
    10 Ti    c    -25.034685           0.008546   -0.000000   -1.758058
    11 Ti    c    -25.057031           0.016531   -0.000000   -1.768861
    12 Ti    c    -25.079416           0.007547   -0.000000   -1.777051
    13 Ti    c    -25.079415          -0.007548   -0.000000   -1.777051
    14 Ti    c    -25.077257          -0.009642    0.003230   -1.766624
    15 Ti    c    -25.067312          -0.004870    0.000233   -1.763468
    16 Ti    c    -25.067312           0.004870    0.000233   -1.763468
    17 Ti    c    -25.077257           0.009642    0.003231   -1.766624
    18 Ti    c    -25.086988           0.004786    0.005999   -1.769721
    19 Ti    c    -22.843416          -0.011983   -0.010231    1.527668
    20 Ti    c    -22.833229           0.000000   -0.011952    1.528641
    21 Ti    c    -22.843417           0.011983   -0.010230    1.527668
    22 Ti    c    -22.833229           0.000000    0.011952    1.528641
    23 Ti    c    -22.862897           0.011518    0.006531    1.526076
    24 Ti    c    -22.872466          -0.000000    0.004485    1.526168
    25 Ti    c    -22.854919           0.000000   -0.000000    1.524766
    26 Ti    c    -22.873120           0.008436   -0.000000    1.527686
    27 Ti    c    -22.879019          -0.000000   -0.000000    1.528893
    28 Ti    c    -22.862896          -0.011519   -0.006532    1.526077
    29 Ti    c    -22.862897           0.011518   -0.006531    1.526076
    30 Ti    c    -22.872466          -0.000000   -0.004485    1.526168
    31 Ti    c    -22.862896          -0.011519    0.006532    1.526077
    32 Ti    c    -22.843416          -0.011983    0.010231    1.527668
    33 Ti    c    -22.843417           0.011983    0.010230    1.527668
    34 Ti    c    -22.873120          -0.008436   -0.000000    1.527686
    35 Ti    c    -22.861009          -0.008830   -0.000000    1.525442
    36 Ti    c    -22.861009           0.008830   -0.000000    1.525443
    37 Ti    c    -23.545598          -0.006382   -0.000000    0.083079
    38 Ti    c    -23.506748          -0.024187   -0.005316    0.071070
    39 Ti    c    -23.483145          -0.013111   -0.010807    0.071457
    40 Ti    c    -23.483146           0.013111   -0.010806    0.071457
    41 Ti    c    -23.506749           0.024187   -0.005316    0.071069
    42 Ti    c    -23.529826           0.012269   -0.002740    0.073607
    43 Ti    c    -23.529825          -0.012269   -0.002740    0.073607
    44 Ti    c    -23.506748          -0.024187    0.005316    0.071070
    45 Ti    c    -23.483145          -0.013111    0.010807    0.071457
    46 Ti    c    -23.483146           0.013111    0.010806    0.071457
    47 Ti    c    -23.506749           0.024187    0.005316    0.071069
    48 Ti    c    -23.529826           0.012269    0.002740    0.073607
    49 Ti    c    -23.529825          -0.012269    0.002740    0.073607
    50 Ti    c    -23.532149          -0.013589   -0.000000    0.083390
    51 Ti    c    -23.518959          -0.006823   -0.000000    0.084434
    52 Ti    c    -23.518959           0.006823   -0.000000    0.084434
    53 Ti    c    -23.532150           0.013589   -0.000000    0.083390
    54 Ti    c    -23.545598           0.006382   -0.000000    0.083079
    55 Ti    c    -23.859472          -0.000000    0.003662   -0.251349
    56 Ti    c    -23.850364          -0.012932   -0.004491   -0.256011
    57 Ti    c    -23.833198          -0.013191   -0.005716   -0.263945
    58 Ti    c    -23.824429           0.000000   -0.006141   -0.268750
    59 Ti    c    -23.833198           0.013191   -0.005715   -0.263945
    60 Ti    c    -23.850364           0.012932   -0.004491   -0.256010
[...]
   527 O2    c     17.637394           0.096025    0.182685    7.878165
   528 O2    c     17.521081           0.058110    0.103740    7.877556
   529 O2    c     17.473101           0.000000    0.062710    7.877116
   530 O2    c     17.851023          -0.443355   -0.000000    7.951213
   531 O2    c     18.544215          -0.361072   -0.000000    8.063842
   532 O3    c     10.425584          -0.000029   -0.000000    3.604245
   533 O2    c     18.544290           0.361239   -0.000000    8.063892
   534 O2    c     17.851019           0.443351   -0.000000    7.951215
   535 O2    c     17.630256          -0.000001    0.000000    7.936810
   536 O2    c     17.521081          -0.058111   -0.103739    7.877557
   537 O2    c     17.637394          -0.096027   -0.182682    7.878164
   538 O2    c     17.734123           0.000002   -0.473362    7.810968
   539 O2    c     17.637394           0.096025   -0.182685    7.878165
   540 O2    c     17.521081           0.058110   -0.103740    7.877556
   541 H22   c     -0.685711           0.000192    0.000001   -1.999014

  Total time to end of lattice properties =      64.3790 s

  Timing analysis for GULP :

  Task / Subroutine                                          Time (Seconds)
  Calculation of reciprocal space energy and derivatives         27.8193
  Calculation of real space energy and derivatives               26.0572
  Calculation of three-body energy and derivatives                0.0034
  Calculation of four-body energy and derivatives                 0.0009
  Calculation of molecules and connectivity                       0.0418
  Calculation of phonons                                          7.4931
  Calculation of scattering                                       0.0000
  Calculation of matrix inversion                                 5.5898
  Symmetry generation of equivalent positions                     0.0022
  Global summation overhead                                       0.0001

  Dump file written as fit1.res

  Job Finished at 19:52.27 24th May        2016